*SPEF "ieee 1481-1999"
*DESIGN "twoscomplement"
*DATE "21:00:14 Thursday April 24, 2025"
*VENDOR "The OpenROAD Project"
*PROGRAM "OpenROAD"
*VERSION "b16bda7e82721d10566ff7e2b68f1ff0be9f9e38"
*DESIGN_FLOW "NAME_SCOPE LOCAL" "PIN_CAP NONE"
*DIVIDER /
*DELIMITER :
*BUS_DELIMITER []
*T_UNIT 1 NS
*C_UNIT 1 PF
*R_UNIT 1 OHM
*L_UNIT 1 HENRY

*NAME_MAP
*3 in[0]
*4 in[1]
*5 in[2]
*6 in[3]
*7 in[4]
*8 in[5]
*9 in[6]
*10 in[7]
*11 out[0]
*12 out[1]
*13 out[2]
*14 out[3]
*15 out[4]
*16 out[5]
*17 out[6]
*18 out[7]
*19 _00_
*20 _01_
*21 _02_
*22 _03_
*23 _04_
*24 _05_
*25 _06_
*26 _07_
*27 _08_
*28 net1
*29 net10
*30 net11
*31 net12
*32 net13
*33 net14
*34 net15
*35 net16
*36 net2
*37 net3
*38 net4
*39 net5
*40 net6
*41 net7
*42 net8
*43 net9
*44 FILLER_0_0_21
*45 FILLER_0_0_27
*46 FILLER_0_0_29
*47 FILLER_0_0_37
*48 FILLER_0_0_9
*49 FILLER_0_10_12
*50 FILLER_0_10_20
*51 FILLER_0_10_29
*52 FILLER_0_10_42
*53 FILLER_0_11_11
*54 FILLER_0_11_23
*55 FILLER_0_11_27
*56 FILLER_0_11_35
*57 FILLER_0_11_44
*58 FILLER_0_12_14
*59 FILLER_0_12_23
*60 FILLER_0_12_27
*61 FILLER_0_12_29
*62 FILLER_0_12_37
*63 FILLER_0_12_6
*64 FILLER_0_1_15
*65 FILLER_0_1_24
*66 FILLER_0_1_3
*67 FILLER_0_1_36
*68 FILLER_0_2_18
*69 FILLER_0_2_26
*70 FILLER_0_2_29
*71 FILLER_0_2_41
*72 FILLER_0_2_47
*73 FILLER_0_2_6
*74 FILLER_0_3_11
*75 FILLER_0_3_23
*76 FILLER_0_3_3
*77 FILLER_0_3_35
*78 FILLER_0_3_43
*79 FILLER_0_4_15
*80 FILLER_0_4_27
*81 FILLER_0_4_29
*82 FILLER_0_4_3
*83 FILLER_0_4_41
*84 FILLER_0_4_47
*85 FILLER_0_5_14
*86 FILLER_0_5_24
*87 FILLER_0_5_36
*88 FILLER_0_5_6
*89 FILLER_0_6_15
*90 FILLER_0_6_27
*91 FILLER_0_6_29
*92 FILLER_0_6_3
*93 FILLER_0_6_41
*94 FILLER_0_6_47
*95 FILLER_0_7_15
*96 FILLER_0_7_3
*97 FILLER_0_7_30
*98 FILLER_0_7_42
*99 FILLER_0_8_18
*100 FILLER_0_8_26
*101 FILLER_0_8_29
*102 FILLER_0_8_41
*103 FILLER_0_8_6
*104 FILLER_0_9_11
*105 FILLER_0_9_21
*106 FILLER_0_9_3
*107 FILLER_0_9_33
*108 FILLER_0_9_45
*109 PHY_EDGE_ROW_0_Left_13
*110 PHY_EDGE_ROW_0_Right_0
*111 PHY_EDGE_ROW_10_Left_23
*112 PHY_EDGE_ROW_10_Right_10
*113 PHY_EDGE_ROW_11_Left_24
*114 PHY_EDGE_ROW_11_Right_11
*115 PHY_EDGE_ROW_12_Left_25
*116 PHY_EDGE_ROW_12_Right_12
*117 PHY_EDGE_ROW_1_Left_14
*118 PHY_EDGE_ROW_1_Right_1
*119 PHY_EDGE_ROW_2_Left_15
*120 PHY_EDGE_ROW_2_Right_2
*121 PHY_EDGE_ROW_3_Left_16
*122 PHY_EDGE_ROW_3_Right_3
*123 PHY_EDGE_ROW_4_Left_17
*124 PHY_EDGE_ROW_4_Right_4
*125 PHY_EDGE_ROW_5_Left_18
*126 PHY_EDGE_ROW_5_Right_5
*127 PHY_EDGE_ROW_6_Left_19
*128 PHY_EDGE_ROW_6_Right_6
*129 PHY_EDGE_ROW_7_Left_20
*130 PHY_EDGE_ROW_7_Right_7
*131 PHY_EDGE_ROW_8_Left_21
*132 PHY_EDGE_ROW_8_Right_8
*133 PHY_EDGE_ROW_9_Left_22
*134 PHY_EDGE_ROW_9_Right_9
*135 TAP_TAPCELL_ROW_0_26
*136 TAP_TAPCELL_ROW_10_31
*137 TAP_TAPCELL_ROW_12_32
*138 TAP_TAPCELL_ROW_2_27
*139 TAP_TAPCELL_ROW_4_28
*140 TAP_TAPCELL_ROW_6_29
*141 TAP_TAPCELL_ROW_8_30
*142 _09_
*143 _10_
*144 _11_
*145 _12_
*146 _13_
*147 _14_
*148 _15_
*149 _16_
*150 _17_
*151 _18_
*152 _19_
*153 _20_
*154 _21_
*155 _22_
*156 _23_
*157 _24_
*158 _25_
*159 input1
*160 input2
*161 input3
*162 input4
*163 input5
*164 input6
*165 input7
*166 input8
*167 output10
*168 output11
*169 output12
*170 output13
*171 output14
*172 output15
*173 output16
*174 output9

*PORTS
in[0] I
in[1] I
in[2] I
in[3] I
in[4] I
in[5] I
in[6] I
in[7] I
out[0] O
out[1] O
out[2] O
out[3] O
out[4] O
out[5] O
out[6] O
out[7] O

*D_NET *3 0.00109905
*CONN
*P in[0] I
*I *159:A I *D sky130_fd_sc_hd__buf_1
*CAP
1 in[0] 0.000541834
2 *159:A 0.000541834
3 *159:A *154:B1 0
4 *159:A *158:A 0
5 *159:A *160:A 1.53815e-05
*RES
1 in[0] *159:A 24.4979 
*END

*D_NET *4 0.00112509
*CONN
*P in[1] I
*I *160:A I *D sky130_fd_sc_hd__buf_1
*CAP
1 in[1] 0.000482251
2 *160:A 0.000482251
3 *160:A *154:A1 5.95406e-05
4 *160:A *154:B1 2.89016e-05
5 *160:A *161:A 0
6 *160:A *28:6 4.69963e-05
7 *160:A *28:26 9.77264e-06
8 *159:A *160:A 1.53815e-05
*RES
1 in[1] *160:A 23.5852 
*END

*D_NET *5 0.00106961
*CONN
*P in[2] I
*I *161:A I *D sky130_fd_sc_hd__buf_1
*CAP
1 in[2] 0.000376446
2 *161:A 0.000376446
3 *161:A *146:A 6.4201e-05
4 *161:A *148:A 0
5 *161:A *148:D 5.65955e-05
6 *161:A *162:A 0
7 *161:A *23:6 0.000195921
8 *160:A *161:A 0
*RES
1 in[2] *161:A 22.9239 
*END

*D_NET *6 0.000694675
*CONN
*P in[3] I
*I *162:A I *D sky130_fd_sc_hd__clkbuf_1
*CAP
1 in[3] 0.000347337
2 *162:A 0.000347337
3 *162:A *149:A_N 0
4 *162:A *163:A 0
5 *161:A *162:A 0
*RES
1 in[3] *162:A 21.6946 
*END

*D_NET *7 0.00061104
*CONN
*P in[4] I
*I *163:A I *D sky130_fd_sc_hd__buf_1
*CAP
1 in[4] 0.00030552
2 *163:A 0.00030552
3 *163:A *149:A_N 0
4 *163:A *164:A 0
5 *162:A *163:A 0
*RES
1 in[4] *163:A 20.7838 
*END

*D_NET *8 0.000563768
*CONN
*P in[5] I
*I *164:A I *D sky130_fd_sc_hd__buf_1
*CAP
1 in[5] 0.000281884
2 *164:A 0.000281884
3 *164:A *165:A 0
4 *163:A *164:A 0
*RES
1 in[5] *164:A 20.4803 
*END

*D_NET *9 0.000563768
*CONN
*P in[6] I
*I *165:A I *D sky130_fd_sc_hd__clkbuf_1
*CAP
1 in[6] 0.000281884
2 *165:A 0.000281884
3 *165:A *166:A 0
4 *164:A *165:A 0
*RES
1 in[6] *165:A 20.4803 
*END

*D_NET *10 0.00123174
*CONN
*P in[7] I
*I *166:A I *D sky130_fd_sc_hd__buf_1
*CAP
1 in[7] 0.000615872
2 *166:A 0.000615872
3 *165:A *166:A 0
*RES
1 in[7] *166:A 25.0176 
*END

*D_NET *11 0.00116601
*CONN
*P out[0] O
*I *174:X O *D sky130_fd_sc_hd__buf_2
*CAP
1 out[0] 0.000583005
2 *174:X 0.000583005
3 out[0] out[1] 0
*RES
1 *174:X out[0] 23.8754 
*END

*D_NET *12 0.000438356
*CONN
*P out[1] O
*I *167:X O *D sky130_fd_sc_hd__buf_2
*CAP
1 out[1] 0.000219178
2 *167:X 0.000219178
3 out[1] out[2] 0
4 out[0] out[1] 0
*RES
1 *167:X out[1] 18.1229 
*END

*D_NET *13 0.000440675
*CONN
*P out[2] O
*I *168:X O *D sky130_fd_sc_hd__buf_2
*CAP
1 out[2] 0.00021424
2 *168:X 0.00021424
3 out[2] out[3] 0
4 out[2] *169:A 1.21955e-05
5 out[1] out[2] 0
*RES
1 *168:X out[2] 18.1229 
*END

*D_NET *14 0.000579002
*CONN
*P out[3] O
*I *169:X O *D sky130_fd_sc_hd__buf_2
*CAP
1 out[3] 0.000268018
2 *169:X 0.000268018
3 out[3] out[4] 0
4 out[3] *35:12 4.29654e-05
5 out[2] out[3] 0
*RES
1 *169:X out[3] 19.3371 
*END

*D_NET *15 0.000813597
*CONN
*P out[4] O
*I *170:X O *D sky130_fd_sc_hd__buf_2
*CAP
1 out[4] 0.000390392
2 *170:X 0.000390392
3 out[4] out[5] 0
4 out[4] *145:B 2.06178e-05
5 out[4] *170:A 1.21955e-05
6 out[3] out[4] 0
*RES
1 *170:X out[4] 18.4832 
*END

*D_NET *16 0.000586236
*CONN
*P out[5] O
*I *171:X O *D sky130_fd_sc_hd__buf_2
*CAP
1 out[5] 0.000271635
2 *171:X 0.000271635
3 out[5] out[6] 0
4 out[5] *35:12 4.29654e-05
5 out[4] out[5] 0
*RES
1 *171:X out[5] 19.3371 
*END

*D_NET *17 0.00077246
*CONN
*P out[6] O
*I *172:X O *D sky130_fd_sc_hd__buf_2
*CAP
1 out[6] 0.00038623
2 *172:X 0.00038623
3 out[6] out[7] 0
4 out[5] out[6] 0
*RES
1 *172:X out[6] 18.5553 
*END

*D_NET *18 0.00103775
*CONN
*P out[7] O
*I *173:X O *D sky130_fd_sc_hd__clkbuf_4
*CAP
1 out[7] 0.000518877
2 *173:X 0.000518877
3 out[6] out[7] 0
*RES
1 *173:X out[7] 24.4258 
*END

*D_NET *19 0.00705047
*CONN
*I *157:B1_N I *D sky130_fd_sc_hd__a21boi_1
*I *143:B I *D sky130_fd_sc_hd__nor2_1
*I *147:A3 I *D sky130_fd_sc_hd__o31a_1
*I *148:D I *D sky130_fd_sc_hd__or4_1
*I *144:B I *D sky130_fd_sc_hd__and2_1
*I *142:X O *D sky130_fd_sc_hd__or4_2
*CAP
1 *157:B1_N 0.000264246
2 *143:B 9.84737e-05
3 *147:A3 0
4 *148:D 0.000390773
5 *144:B 0.000386856
6 *142:X 0
7 *19:59 0.000587359
8 *19:29 0.000649803
9 *19:25 0.000732166
10 *19:6 0.000635352
11 *143:B *143:A 5.33005e-05
12 *143:B *157:A2 5.31151e-05
13 *144:B *144:A 0.000777252
14 *144:B *145:B 1.07719e-05
15 *144:B *153:A 0
16 *144:B *168:A 0.00018984
17 *144:B *33:14 0
18 *144:B *39:20 0.000145584
19 *148:D *145:A 4.61111e-05
20 *148:D *146:A 1.34548e-05
21 *148:D *148:A 0.000268929
22 *148:D *148:C 6.8646e-06
23 *148:D *149:B 7.13435e-05
24 *148:D *151:B 5.33005e-05
25 *148:D *23:6 5.49489e-05
26 *148:D *24:16 2.55698e-05
27 *148:D *25:12 3.34672e-05
28 *148:D *39:24 9.83388e-05
29 *157:B1_N *157:A1 2.44318e-05
30 *157:B1_N *157:A2 0.000490416
31 *157:B1_N *169:A 0.00010096
32 *157:B1_N *174:A 1.74352e-05
33 *19:25 *33:14 0
34 *19:25 *39:20 0.0002095
35 *19:29 *147:B1 5.49544e-05
36 *19:29 *28:51 1.15281e-05
37 *19:29 *39:24 7.40839e-05
38 *19:59 *143:A 1.08359e-05
39 *19:59 *157:A1 0
40 *19:59 *28:51 0.000313458
41 *19:59 *33:14 0
42 *19:59 *39:20 3.90513e-05
43 *161:A *148:D 5.65955e-05
*RES
1 *142:X *19:6 13.8 
2 *19:6 *144:B 25.1036 
3 *19:6 *19:25 5.94643 
4 *19:25 *19:29 8.32143 
5 *19:29 *148:D 34.3357 
6 *19:29 *147:A3 9.3 
7 *19:25 *19:59 9.78571 
8 *19:59 *143:B 11.0857 
9 *19:59 *157:B1_N 15.9964 
*END

*D_NET *20 0.00426324
*CONN
*I *145:A I *D sky130_fd_sc_hd__nor2_1
*I *146:B I *D sky130_fd_sc_hd__xnor2_1
*I *143:Y O *D sky130_fd_sc_hd__nor2_1
*CAP
1 *145:A 0.00108339
2 *146:B 4.08791e-05
3 *143:Y 0.000114365
4 *20:12 0.00123863
5 *145:A *151:B 1.31517e-05
6 *145:A *153:B 3.67548e-05
7 *145:A *156:A 0.000960606
8 *145:A *25:12 0
9 *146:B *151:B 0.000140088
10 *146:B *24:16 2.2351e-05
11 *146:B *37:33 9.93955e-05
12 *20:12 *143:A 0.000128161
13 *20:12 *151:B 0.000165385
14 *20:12 *36:42 0.000128161
15 *20:12 *37:33 4.58194e-05
16 *148:D *145:A 4.61111e-05
*RES
1 *143:Y *20:12 21.7107 
2 *20:12 *146:B 11.0679 
3 *20:12 *145:A 40.8179 
*END

*D_NET *21 0.002608
*CONN
*I *145:B I *D sky130_fd_sc_hd__nor2_1
*I *144:X O *D sky130_fd_sc_hd__and2_1
*CAP
1 *145:B 0.00062357
2 *144:X 0.00062357
3 *145:B *170:A 0.000625148
4 *145:B *34:12 0
5 *145:B *35:12 0.000704323
6 out[4] *145:B 2.06178e-05
7 *144:B *145:B 1.07719e-05
*RES
1 *144:X *145:B 44.9929 
*END

*D_NET *22 0.00309502
*CONN
*I *149:A_N I *D sky130_fd_sc_hd__and2b_1
*I *147:X O *D sky130_fd_sc_hd__o31a_1
*CAP
1 *149:A_N 0.000821015
2 *147:X 0.000821015
3 *149:A_N *147:A2 0.000349942
4 *149:A_N *148:A 8.25843e-06
5 *149:A_N *40:10 0.00109479
6 *162:A *149:A_N 0
7 *163:A *149:A_N 0
*RES
1 *147:X *149:A_N 45.2071 
*END

*D_NET *23 0.00583743
*CONN
*I *151:B I *D sky130_fd_sc_hd__xor2_1
*I *149:B I *D sky130_fd_sc_hd__and2b_1
*I *148:X O *D sky130_fd_sc_hd__or4_1
*CAP
1 *151:B 0.000636797
2 *149:B 0.000684592
3 *148:X 0.000197375
4 *23:6 0.00151877
5 *149:B *148:C 0.000119839
6 *149:B *41:10 0.00118951
7 *151:B *146:A 2.85365e-05
8 *151:B *24:16 0.000688733
9 *151:B *25:12 2.84494e-05
10 *151:B *33:14 1.39726e-05
11 *151:B *34:12 3.67257e-05
12 *145:A *151:B 1.31517e-05
13 *146:B *151:B 0.000140088
14 *148:D *149:B 7.13435e-05
15 *148:D *151:B 5.33005e-05
16 *148:D *23:6 5.49489e-05
17 *161:A *23:6 0.000195921
18 *20:12 *151:B 0.000165385
*RES
1 *148:X *23:6 11.8893 
2 *23:6 *149:B 35.7821 
3 *23:6 *151:B 30.925 
*END

*D_NET *24 0.004113
*CONN
*I *150:A I *D sky130_fd_sc_hd__clkbuf_1
*I *149:X O *D sky130_fd_sc_hd__and2b_1
*CAP
1 *150:A 0
2 *149:X 0.00117643
3 *24:16 0.00117643
4 *24:16 *146:A 3.32631e-05
5 *24:16 *25:12 0.000421621
6 *24:16 *33:14 0.000561764
7 *24:16 *37:33 6.8445e-06
8 *146:B *24:16 2.2351e-05
9 *148:D *24:16 2.55698e-05
10 *151:B *24:16 0.000688733
*RES
1 *149:X *24:16 44.8357 
2 *24:16 *150:A 9.3 
*END

*D_NET *25 0.0050413
*CONN
*I *157:A2 I *D sky130_fd_sc_hd__a21boi_1
*I *155:A I *D sky130_fd_sc_hd__and2_1
*I *153:X O *D sky130_fd_sc_hd__or3_1
*CAP
1 *157:A2 0.000230673
2 *155:A 0.000209817
3 *153:X 0.000782647
4 *25:12 0.00122314
5 *155:A *155:B 9.90367e-05
6 *155:A *156:A 0.000104922
7 *155:A *158:A 5.33005e-05
8 *155:A *174:A 0.000228931
9 *157:A2 *143:A 5.33005e-05
10 *157:A2 *156:A 9.33252e-05
11 *157:A2 *157:A1 0.000186669
12 *157:A2 *174:A 0.0006916
13 *25:12 *148:C 0
14 *25:12 *156:A 0
15 *25:12 *36:42 0
16 *25:12 *39:12 5.68713e-05
17 *25:12 *40:23 0
18 *143:B *157:A2 5.31151e-05
19 *145:A *25:12 0
20 *148:D *25:12 3.34672e-05
21 *151:B *25:12 2.84494e-05
22 *157:B1_N *157:A2 0.000490416
23 *24:16 *25:12 0.000421621
*RES
1 *153:X *25:12 33.2286 
2 *25:12 *155:A 14.3714 
3 *25:12 *157:A2 19.425 
*END

*D_NET *26 0.000443361
*CONN
*I *155:B I *D sky130_fd_sc_hd__and2_1
*I *154:Y O *D sky130_fd_sc_hd__o21ai_1
*CAP
1 *155:B 0.000105579
2 *154:Y 0.000105579
3 *155:B *154:B1 0.000125731
4 *155:B *156:A 7.43578e-06
5 *155:A *155:B 9.90367e-05
*RES
1 *154:Y *155:B 30.1893 
*END

*D_NET *27 0.00356166
*CONN
*I *156:A I *D sky130_fd_sc_hd__clkbuf_1
*I *155:X O *D sky130_fd_sc_hd__and2_1
*CAP
1 *156:A 0.000674077
2 *155:X 0.000674077
3 *156:A *153:B 0.000369097
4 *156:A *153:C 1.41029e-05
5 *156:A *158:A 2.84109e-05
6 *156:A *28:51 0.000430161
7 *156:A *36:42 4.66203e-05
8 *156:A *37:33 0.000158831
9 *145:A *156:A 0.000960606
10 *155:A *156:A 0.000104922
11 *155:B *156:A 7.43578e-06
12 *157:A2 *156:A 9.33252e-05
13 *25:12 *156:A 0
*RES
1 *155:X *156:A 47.5643 
*END

*D_NET *28 0.00618789
*CONN
*I *142:D I *D sky130_fd_sc_hd__or4_2
*I *153:C I *D sky130_fd_sc_hd__or3_1
*I *152:B I *D sky130_fd_sc_hd__xor2_1
*I *158:A I *D sky130_fd_sc_hd__clkbuf_1
*I *154:A2 I *D sky130_fd_sc_hd__o21ai_1
*I *159:X O *D sky130_fd_sc_hd__buf_1
*CAP
1 *142:D 0
2 *153:C 0.000159463
3 *152:B 2.22847e-05
4 *158:A 0.000154725
5 *154:A2 0
6 *159:X 9.49968e-05
7 *28:51 0.000848589
8 *28:26 0.000925065
9 *28:6 0.000463376
10 *153:C *153:A 0.000368367
11 *153:C *153:B 0.000343203
12 *153:C *37:33 7.22594e-05
13 *153:C *39:12 0.000145241
14 *158:A *154:B1 0.000192426
15 *28:6 *154:B1 5.52238e-05
16 *28:26 *154:A1 0.000143375
17 *28:26 *36:19 5.46892e-05
18 *28:26 *36:42 3.08664e-05
19 *28:51 *143:A 0.000333486
20 *28:51 *167:A 0.000186662
21 *28:51 *36:42 0.000120935
22 *28:51 *37:33 0.000429895
23 *28:51 *39:24 0.000135028
24 *155:A *158:A 5.33005e-05
25 *156:A *153:C 1.41029e-05
26 *156:A *158:A 2.84109e-05
27 *156:A *28:51 0.000430161
28 *159:A *158:A 0
29 *160:A *28:6 4.69963e-05
30 *160:A *28:26 9.77264e-06
31 *19:29 *28:51 1.15281e-05
32 *19:59 *28:51 0.000313458
*RES
1 *159:X *28:6 11.0679 
2 *28:6 *154:A2 9.3 
3 *28:6 *158:A 21.6929 
4 *28:6 *28:26 4.23214 
5 *28:26 *152:B 9.72857 
6 *28:26 *28:51 31.625 
7 *28:51 *153:C 20.2643 
8 *28:51 *142:D 13.8 
*END

*D_NET *29 0.00129658
*CONN
*I *167:A I *D sky130_fd_sc_hd__buf_2
*I *152:X O *D sky130_fd_sc_hd__xor2_1
*CAP
1 *167:A 0.000527348
2 *152:X 0.000527348
3 *167:A *36:42 5.52238e-05
4 *28:51 *167:A 0.000186662
*RES
1 *152:X *167:A 28.1893 
*END

*D_NET *30 0.00299411
*CONN
*I *168:A I *D sky130_fd_sc_hd__buf_2
*I *156:X O *D sky130_fd_sc_hd__clkbuf_1
*CAP
1 *168:A 0.000834055
2 *156:X 0.000834055
3 *168:A *144:A 2.24763e-05
4 *168:A *153:A 5.71472e-05
5 *168:A *170:A 5.83304e-05
6 *168:A *34:12 0.000480335
7 *168:A *35:12 0.00047221
8 *168:A *39:12 2.65105e-05
9 *168:A *42:10 1.91512e-05
10 *144:B *168:A 0.00018984
*RES
1 *156:X *168:A 49.0464 
*END

*D_NET *31 0.00127099
*CONN
*I *169:A I *D sky130_fd_sc_hd__buf_2
*I *157:Y O *D sky130_fd_sc_hd__a21boi_1
*CAP
1 *169:A 0.00036912
2 *157:Y 0.00036912
3 *169:A *157:A1 0
4 *169:A *35:12 0.000419599
5 out[2] *169:A 1.21955e-05
6 *157:B1_N *169:A 0.00010096
*RES
1 *157:Y *169:A 36.0643 
*END

*D_NET *32 0.00289033
*CONN
*I *170:A I *D sky130_fd_sc_hd__buf_2
*I *145:Y O *D sky130_fd_sc_hd__nor2_1
*CAP
1 *170:A 0.000731779
2 *145:Y 0.000731779
3 *170:A *34:12 0.000731101
4 *170:A *35:12 0
5 out[4] *170:A 1.21955e-05
6 *145:B *170:A 0.000625148
7 *168:A *170:A 5.83304e-05
*RES
1 *145:Y *170:A 43.9393 
*END

*D_NET *33 0.00423805
*CONN
*I *171:A I *D sky130_fd_sc_hd__buf_2
*I *146:Y O *D sky130_fd_sc_hd__xnor2_1
*CAP
1 *171:A 0
2 *146:Y 0.00157485
3 *33:14 0.00157485
4 *33:14 *142:A 0.000126439
5 *33:14 *153:A 0
6 *33:14 *157:A1 0.000386169
7 *33:14 *42:10 0
8 *144:B *33:14 0
9 *151:B *33:14 1.39726e-05
10 *19:25 *33:14 0
11 *19:59 *33:14 0
12 *24:16 *33:14 0.000561764
*RES
1 *146:Y *33:14 45.0321 
2 *33:14 *171:A 9.3 
*END

*D_NET *34 0.00450321
*CONN
*I *172:A I *D sky130_fd_sc_hd__buf_2
*I *150:X O *D sky130_fd_sc_hd__clkbuf_1
*CAP
1 *172:A 0
2 *150:X 0.000722132
3 *34:12 0.000722132
4 *34:12 *35:12 0
5 *34:12 *42:10 0.00181078
6 *145:B *34:12 0
7 *151:B *34:12 3.67257e-05
8 *168:A *34:12 0.000480335
9 *170:A *34:12 0.000731101
*RES
1 *150:X *34:12 43.8714 
2 *34:12 *172:A 9.3 
*END

*D_NET *35 0.00359646
*CONN
*I *173:A I *D sky130_fd_sc_hd__clkbuf_4
*I *151:X O *D sky130_fd_sc_hd__xor2_1
*CAP
1 *173:A 0
2 *151:X 0.000957198
3 *35:12 0.000957198
4 *35:12 *157:A1 0
5 out[3] *35:12 4.29654e-05
6 out[5] *35:12 4.29654e-05
7 *145:B *35:12 0.000704323
8 *168:A *35:12 0.00047221
9 *169:A *35:12 0.000419599
10 *170:A *35:12 0
11 *34:12 *35:12 0
*RES
1 *151:X *35:12 43.9607 
2 *35:12 *173:A 9.3 
*END

*D_NET *36 0.00495238
*CONN
*I *142:C I *D sky130_fd_sc_hd__or4_2
*I *153:B I *D sky130_fd_sc_hd__or3_1
*I *152:A I *D sky130_fd_sc_hd__xor2_1
*I *154:A1 I *D sky130_fd_sc_hd__o21ai_1
*I *160:X O *D sky130_fd_sc_hd__buf_1
*CAP
1 *142:C 0
2 *153:B 0.000282417
3 *152:A 0
4 *154:A1 8.17422e-05
5 *160:X 0
6 *36:42 0.000854162
7 *36:19 0.000766123
8 *36:4 0.00027612
9 *153:B *153:A 7.53256e-05
10 *36:42 *143:A 0.000177656
11 *36:42 *37:33 0.000621623
12 *36:42 *39:20 0.00042875
13 *145:A *153:B 3.67548e-05
14 *153:C *153:B 0.000343203
15 *156:A *153:B 0.000369097
16 *156:A *36:42 4.66203e-05
17 *160:A *154:A1 5.95406e-05
18 *167:A *36:42 5.52238e-05
19 *20:12 *36:42 0.000128161
20 *25:12 *36:42 0
21 *28:26 *154:A1 0.000143375
22 *28:26 *36:19 5.46892e-05
23 *28:26 *36:42 3.08664e-05
24 *28:51 *36:42 0.000120935
*RES
1 *160:X *36:4 9.3 
2 *36:4 *154:A1 12.1214 
3 *36:4 *36:19 2.91071 
4 *36:19 *152:A 9.3 
5 *36:19 *36:42 25.3036 
6 *36:42 *153:B 25.7821 
7 *36:42 *142:C 9.3 
*END

*D_NET *37 0.00512482
*CONN
*I *142:B I *D sky130_fd_sc_hd__or4_2
*I *153:A I *D sky130_fd_sc_hd__or3_1
*I *154:B1 I *D sky130_fd_sc_hd__o21ai_1
*I *161:X O *D sky130_fd_sc_hd__buf_1
*CAP
1 *142:B 0
2 *153:A 0.000200138
3 *154:B1 0.000303037
4 *161:X 0
5 *37:33 0.000827834
6 *37:4 0.000930733
7 *153:A *39:12 3.09391e-05
8 *153:A *39:20 0.000145584
9 *154:B1 *146:A 0.000143375
10 *154:B1 *40:23 5.80706e-06
11 *37:33 *146:A 0.000172336
12 *37:33 *39:20 2.72449e-05
13 *144:B *153:A 0
14 *146:B *37:33 9.93955e-05
15 *153:B *153:A 7.53256e-05
16 *153:C *153:A 0.000368367
17 *153:C *37:33 7.22594e-05
18 *155:B *154:B1 0.000125731
19 *156:A *37:33 0.000158831
20 *158:A *154:B1 0.000192426
21 *159:A *154:B1 0
22 *160:A *154:B1 2.89016e-05
23 *168:A *153:A 5.71472e-05
24 *20:12 *37:33 4.58194e-05
25 *24:16 *37:33 6.8445e-06
26 *28:6 *154:B1 5.52238e-05
27 *28:51 *37:33 0.000429895
28 *33:14 *153:A 0
29 *36:42 *37:33 0.000621623
*RES
1 *161:X *37:4 9.3 
2 *37:4 *154:B1 24.5679 
3 *37:4 *37:33 19.3929 
4 *37:33 *153:A 20.3536 
5 *37:33 *142:B 13.8 
*END

*D_NET *38 0.00475678
*CONN
*I *157:A1 I *D sky130_fd_sc_hd__a21boi_1
*I *142:A I *D sky130_fd_sc_hd__or4_2
*I *162:X O *D sky130_fd_sc_hd__clkbuf_1
*CAP
1 *157:A1 0.000361597
2 *142:A 0.000279309
3 *162:X 0.00115527
4 *38:8 0.00179618
5 *142:A *42:10 4.35048e-05
6 *157:A1 *174:A 0.000230482
7 *157:A1 *42:10 0.000166732
8 *157:A2 *157:A1 0.000186669
9 *157:B1_N *157:A1 2.44318e-05
10 *169:A *157:A1 0
11 *19:59 *157:A1 0
12 *33:14 *142:A 0.000126439
13 *33:14 *157:A1 0.000386169
14 *35:12 *157:A1 0
*RES
1 *162:X *38:8 25.8357 
2 *38:8 *142:A 18.8536 
3 *38:8 *157:A1 24.6036 
*END

*D_NET *39 0.00830534
*CONN
*I *144:A I *D sky130_fd_sc_hd__and2_1
*I *143:A I *D sky130_fd_sc_hd__nor2_1
*I *147:A1 I *D sky130_fd_sc_hd__o31a_1
*I *148:A I *D sky130_fd_sc_hd__or4_1
*I *163:X O *D sky130_fd_sc_hd__buf_1
*CAP
1 *144:A 0.000624925
2 *143:A 0.00016523
3 *147:A1 2.0816e-05
4 *148:A 0.000281892
5 *163:X 0.000696999
6 *39:24 0.000480404
7 *39:20 0.000610779
8 *39:12 0.00158978
9 *147:A1 *147:B1 3.41517e-06
10 *148:A *147:A2 1.21258e-05
11 *148:A *147:B1 0.000207173
12 *148:A *40:23 0.000148196
13 *39:24 *147:B1 6.7224e-05
14 *143:B *143:A 5.33005e-05
15 *144:B *144:A 0.000777252
16 *144:B *39:20 0.000145584
17 *148:D *148:A 0.000268929
18 *148:D *39:24 9.83388e-05
19 *149:A_N *148:A 8.25843e-06
20 *153:A *39:12 3.09391e-05
21 *153:A *39:20 0.000145584
22 *153:C *39:12 0.000145241
23 *157:A2 *143:A 5.33005e-05
24 *161:A *148:A 0
25 *168:A *144:A 2.24763e-05
26 *168:A *39:12 2.65105e-05
27 *19:25 *39:20 0.0002095
28 *19:29 *39:24 7.40839e-05
29 *19:59 *143:A 1.08359e-05
30 *19:59 *39:20 3.90513e-05
31 *20:12 *143:A 0.000128161
32 *25:12 *39:12 5.68713e-05
33 *28:51 *143:A 0.000333486
34 *28:51 *39:24 0.000135028
35 *36:42 *143:A 0.000177656
36 *36:42 *39:20 0.00042875
37 *37:33 *39:20 2.72449e-05
*RES
1 *163:X *39:12 19.0321 
2 *39:12 *39:20 14.6964 
3 *39:20 *39:24 8.32143 
4 *39:24 *148:A 24.8893 
5 *39:24 *147:A1 9.72857 
6 *39:20 *143:A 19.0143 
7 *39:12 *144:A 18.3714 
*END

*D_NET *40 0.00574671
*CONN
*I *148:B I *D sky130_fd_sc_hd__or4_1
*I *146:A I *D sky130_fd_sc_hd__xnor2_1
*I *147:A2 I *D sky130_fd_sc_hd__o31a_1
*I *164:X O *D sky130_fd_sc_hd__buf_1
*CAP
1 *148:B 0
2 *146:A 0.000187292
3 *147:A2 0.000142069
4 *164:X 0.000390979
5 *40:23 0.000335431
6 *40:10 0.000681187
7 *147:A2 *147:B1 0.000438321
8 *40:10 *41:10 0.00126005
9 *40:23 *148:C 0.000211913
10 *40:23 *41:10 3.34366e-05
11 *148:A *147:A2 1.21258e-05
12 *148:A *40:23 0.000148196
13 *148:D *146:A 1.34548e-05
14 *149:A_N *147:A2 0.000349942
15 *149:A_N *40:10 0.00109479
16 *151:B *146:A 2.85365e-05
17 *154:B1 *146:A 0.000143375
18 *154:B1 *40:23 5.80706e-06
19 *161:A *146:A 6.4201e-05
20 *24:16 *146:A 3.32631e-05
21 *25:12 *40:23 0
22 *37:33 *146:A 0.000172336
*RES
1 *164:X *40:10 30.2464 
2 *40:10 *147:A2 18.4429 
3 *40:10 *40:23 8.26786 
4 *40:23 *146:A 14.2821 
5 *40:23 *148:B 9.3 
*END

*D_NET *41 0.00549404
*CONN
*I *148:C I *D sky130_fd_sc_hd__or4_1
*I *147:B1 I *D sky130_fd_sc_hd__o31a_1
*I *165:X O *D sky130_fd_sc_hd__clkbuf_1
*CAP
1 *148:C 0.000106154
2 *147:B1 0.000151347
3 *165:X 0.000693169
4 *41:10 0.00095067
5 *147:A1 *147:B1 3.41517e-06
6 *147:A2 *147:B1 0.000438321
7 *148:A *147:B1 0.000207173
8 *148:D *148:C 6.8646e-06
9 *149:B *148:C 0.000119839
10 *149:B *41:10 0.00118951
11 *19:29 *147:B1 5.49544e-05
12 *25:12 *148:C 0
13 *39:24 *147:B1 6.7224e-05
14 *40:10 *41:10 0.00126005
15 *40:23 *148:C 0.000211913
16 *40:23 *41:10 3.34366e-05
*RES
1 *165:X *41:10 35.8179 
2 *41:10 *147:B1 19.2821 
3 *41:10 *148:C 16.6571 
*END

*D_NET *42 0.00576147
*CONN
*I *151:A I *D sky130_fd_sc_hd__xor2_1
*I *166:X O *D sky130_fd_sc_hd__buf_1
*CAP
1 *151:A 0
2 *166:X 0.00186065
3 *42:10 0.00186065
4 *142:A *42:10 4.35048e-05
5 *157:A1 *42:10 0.000166732
6 *168:A *42:10 1.91512e-05
7 *33:14 *42:10 0
8 *34:12 *42:10 0.00181078
*RES
1 *166:X *42:10 49.3357 
2 *42:10 *151:A 13.8 
*END

*D_NET *43 0.00306529
*CONN
*I *174:A I *D sky130_fd_sc_hd__buf_2
*I *158:X O *D sky130_fd_sc_hd__clkbuf_1
*CAP
1 *174:A 0.00094842
2 *158:X 0.00094842
3 *155:A *174:A 0.000228931
4 *157:A1 *174:A 0.000230482
5 *157:A2 *174:A 0.0006916
6 *157:B1_N *174:A 1.74352e-05
*RES
1 *158:X *174:A 41.6893 
*END
