*SPEF "ieee 1481-1999"
*DESIGN "twoscomplement"
*DATE "21:00:12 Thursday April 24, 2025"
*VENDOR "The OpenROAD Project"
*PROGRAM "OpenROAD"
*VERSION "b16bda7e82721d10566ff7e2b68f1ff0be9f9e38"
*DESIGN_FLOW "NAME_SCOPE LOCAL" "PIN_CAP NONE"
*DIVIDER /
*DELIMITER :
*BUS_DELIMITER []
*T_UNIT 1 NS
*C_UNIT 1 PF
*R_UNIT 1 OHM
*L_UNIT 1 HENRY

*NAME_MAP
*3 in[0]
*4 in[1]
*5 in[2]
*6 in[3]
*7 in[4]
*8 in[5]
*9 in[6]
*10 in[7]
*11 out[0]
*12 out[1]
*13 out[2]
*14 out[3]
*15 out[4]
*16 out[5]
*17 out[6]
*18 out[7]
*19 _00_
*20 _01_
*21 _02_
*22 _03_
*23 _04_
*24 _05_
*25 _06_
*26 _07_
*27 _08_
*28 net1
*29 net10
*30 net11
*31 net12
*32 net13
*33 net14
*34 net15
*35 net16
*36 net2
*37 net3
*38 net4
*39 net5
*40 net6
*41 net7
*42 net8
*43 net9
*44 FILLER_0_0_21
*45 FILLER_0_0_27
*46 FILLER_0_0_29
*47 FILLER_0_0_37
*48 FILLER_0_0_9
*49 FILLER_0_10_12
*50 FILLER_0_10_20
*51 FILLER_0_10_29
*52 FILLER_0_10_42
*53 FILLER_0_11_11
*54 FILLER_0_11_23
*55 FILLER_0_11_27
*56 FILLER_0_11_35
*57 FILLER_0_11_44
*58 FILLER_0_12_14
*59 FILLER_0_12_23
*60 FILLER_0_12_27
*61 FILLER_0_12_29
*62 FILLER_0_12_37
*63 FILLER_0_12_6
*64 FILLER_0_1_15
*65 FILLER_0_1_24
*66 FILLER_0_1_3
*67 FILLER_0_1_36
*68 FILLER_0_2_18
*69 FILLER_0_2_26
*70 FILLER_0_2_29
*71 FILLER_0_2_41
*72 FILLER_0_2_47
*73 FILLER_0_2_6
*74 FILLER_0_3_11
*75 FILLER_0_3_23
*76 FILLER_0_3_3
*77 FILLER_0_3_35
*78 FILLER_0_3_43
*79 FILLER_0_4_15
*80 FILLER_0_4_27
*81 FILLER_0_4_29
*82 FILLER_0_4_3
*83 FILLER_0_4_41
*84 FILLER_0_4_47
*85 FILLER_0_5_14
*86 FILLER_0_5_24
*87 FILLER_0_5_36
*88 FILLER_0_5_6
*89 FILLER_0_6_15
*90 FILLER_0_6_27
*91 FILLER_0_6_29
*92 FILLER_0_6_3
*93 FILLER_0_6_41
*94 FILLER_0_6_47
*95 FILLER_0_7_15
*96 FILLER_0_7_3
*97 FILLER_0_7_30
*98 FILLER_0_7_42
*99 FILLER_0_8_18
*100 FILLER_0_8_26
*101 FILLER_0_8_29
*102 FILLER_0_8_41
*103 FILLER_0_8_6
*104 FILLER_0_9_11
*105 FILLER_0_9_21
*106 FILLER_0_9_3
*107 FILLER_0_9_33
*108 FILLER_0_9_45
*109 PHY_EDGE_ROW_0_Left_13
*110 PHY_EDGE_ROW_0_Right_0
*111 PHY_EDGE_ROW_10_Left_23
*112 PHY_EDGE_ROW_10_Right_10
*113 PHY_EDGE_ROW_11_Left_24
*114 PHY_EDGE_ROW_11_Right_11
*115 PHY_EDGE_ROW_12_Left_25
*116 PHY_EDGE_ROW_12_Right_12
*117 PHY_EDGE_ROW_1_Left_14
*118 PHY_EDGE_ROW_1_Right_1
*119 PHY_EDGE_ROW_2_Left_15
*120 PHY_EDGE_ROW_2_Right_2
*121 PHY_EDGE_ROW_3_Left_16
*122 PHY_EDGE_ROW_3_Right_3
*123 PHY_EDGE_ROW_4_Left_17
*124 PHY_EDGE_ROW_4_Right_4
*125 PHY_EDGE_ROW_5_Left_18
*126 PHY_EDGE_ROW_5_Right_5
*127 PHY_EDGE_ROW_6_Left_19
*128 PHY_EDGE_ROW_6_Right_6
*129 PHY_EDGE_ROW_7_Left_20
*130 PHY_EDGE_ROW_7_Right_7
*131 PHY_EDGE_ROW_8_Left_21
*132 PHY_EDGE_ROW_8_Right_8
*133 PHY_EDGE_ROW_9_Left_22
*134 PHY_EDGE_ROW_9_Right_9
*135 TAP_TAPCELL_ROW_0_26
*136 TAP_TAPCELL_ROW_10_31
*137 TAP_TAPCELL_ROW_12_32
*138 TAP_TAPCELL_ROW_2_27
*139 TAP_TAPCELL_ROW_4_28
*140 TAP_TAPCELL_ROW_6_29
*141 TAP_TAPCELL_ROW_8_30
*142 _09_
*143 _10_
*144 _11_
*145 _12_
*146 _13_
*147 _14_
*148 _15_
*149 _16_
*150 _17_
*151 _18_
*152 _19_
*153 _20_
*154 _21_
*155 _22_
*156 _23_
*157 _24_
*158 _25_
*159 input1
*160 input2
*161 input3
*162 input4
*163 input5
*164 input6
*165 input7
*166 input8
*167 output10
*168 output11
*169 output12
*170 output13
*171 output14
*172 output15
*173 output16
*174 output9

*PORTS
in[0] I
in[1] I
in[2] I
in[3] I
in[4] I
in[5] I
in[6] I
in[7] I
out[0] O
out[1] O
out[2] O
out[3] O
out[4] O
out[5] O
out[6] O
out[7] O

*D_NET *3 0.00116975
*CONN
*P in[0] I
*I *159:A I *D sky130_fd_sc_hd__buf_1
*CAP
1 in[0] 0.000577222
2 *159:A 0
3 *3:11 0.000577222
4 *3:11 *4:15 1.53024e-05
5 *3:11 *28:19 0
6 *3:11 *37:14 0
*RES
1 in[0] *3:11 31.4739 
2 *3:11 *159:A 23 
*END

*D_NET *4 0.00121921
*CONN
*P in[1] I
*I *160:A I *D sky130_fd_sc_hd__buf_1
*CAP
1 in[1] 0.000527504
2 *160:A 0
3 *4:15 0.000527504
4 *4:15 *154:A1 6.2228e-05
5 *4:15 *5:17 0
6 *4:15 *28:6 4.75087e-05
7 *4:15 *28:26 9.78729e-06
8 *4:15 *37:14 2.93747e-05
9 *3:11 *4:15 1.53024e-05
*RES
1 in[1] *4:15 30.4085 
2 *4:15 *160:A 23 
*END

*D_NET *5 0.00115697
*CONN
*P in[2] I
*I *161:A I *D sky130_fd_sc_hd__buf_1
*CAP
1 in[2] 0.000418456
2 *161:A 0
3 *5:17 0.000418456
4 *5:17 *146:A 6.62309e-05
5 *5:17 *6:17 0
6 *5:17 *19:45 5.79559e-05
7 *5:17 *23:6 0.000195866
8 *5:17 *39:32 0
9 *4:15 *5:17 0
*RES
1 in[2] *5:17 29.639 
2 *5:17 *161:A 23 
*END

*D_NET *6 0.000742726
*CONN
*P in[3] I
*I *162:A I *D sky130_fd_sc_hd__clkbuf_1
*CAP
1 in[3] 0.000371363
2 *162:A 0
3 *6:17 0.000371363
4 *6:17 *7:17 0
5 *6:17 *22:12 0
6 *5:17 *6:17 0
*RES
1 in[3] *6:17 28.2148 
2 *6:17 *162:A 23 
*END

*D_NET *7 0.00065742
*CONN
*P in[4] I
*I *163:A I *D sky130_fd_sc_hd__buf_1
*CAP
1 in[4] 0.00032871
2 *163:A 0
3 *7:17 0.00032871
4 *7:17 *164:A 0
5 *7:17 *22:12 0
6 *6:17 *7:17 0
*RES
1 in[4] *7:17 27.1584 
2 *7:17 *163:A 23 
*END

*D_NET *8 0.000603153
*CONN
*P in[5] I
*I *164:A I *D sky130_fd_sc_hd__buf_1
*CAP
1 in[5] 0.000301577
2 *164:A 0.000301577
3 *164:A *165:A 0
4 *7:17 *164:A 0
*RES
1 in[5] *164:A 49.8062 
*END

*D_NET *9 0.000603153
*CONN
*P in[6] I
*I *165:A I *D sky130_fd_sc_hd__clkbuf_1
*CAP
1 in[6] 0.000301577
2 *165:A 0.000301577
3 *165:A *10:11 0
4 *164:A *165:A 0
*RES
1 in[6] *165:A 49.8062 
*END

*D_NET *10 0.00130197
*CONN
*P in[7] I
*I *166:A I *D sky130_fd_sc_hd__buf_1
*CAP
1 in[7] 0.000650983
2 *166:A 0
3 *10:11 0.000650983
4 *165:A *10:11 0
*RES
1 in[7] *10:11 32.0837 
2 *10:11 *166:A 23 
*END

*D_NET *11 0.00123536
*CONN
*P out[0] O
*I *174:X O *D sky130_fd_sc_hd__buf_2
*CAP
1 out[0] 0.00029892
2 *174:X 0.000318757
3 *11:8 0.000617678
4 out[0] out[1] 0
*RES
1 *174:X *11:8 44.6596 
2 *11:8 out[0] 9.10133 
*END

*D_NET *12 0.00046494
*CONN
*P out[1] O
*I *167:X O *D sky130_fd_sc_hd__buf_2
*CAP
1 out[1] 0.00023247
2 *167:X 0.00023247
3 out[1] out[2] 0
4 out[0] out[1] 0
*RES
1 *167:X out[1] 47.0789 
*END

*D_NET *13 0.000467688
*CONN
*P out[2] O
*I *168:X O *D sky130_fd_sc_hd__buf_2
*CAP
1 out[2] 0.000227473
2 *168:X 0.000227473
3 out[2] out[3] 0
4 out[2] *31:10 1.27424e-05
5 out[1] out[2] 0
*RES
1 *168:X out[2] 47.0789 
*END

*D_NET *14 0.000622565
*CONN
*P out[3] O
*I *169:X O *D sky130_fd_sc_hd__buf_2
*CAP
1 out[3] 0.000289653
2 *169:X 0.000289653
3 out[3] out[4] 0
4 out[3] *35:12 4.32584e-05
5 out[2] out[3] 0
*RES
1 *169:X out[3] 48.4875 
*END

*D_NET *15 0.0008742
*CONN
*P out[4] O
*I *170:X O *D sky130_fd_sc_hd__buf_2
*CAP
1 out[4] 0.000419404
2 *170:X 0.000419404
3 out[4] out[5] 0
4 out[4] *170:A 1.27424e-05
5 out[4] *21:10 2.26497e-05
6 out[3] out[4] 0
*RES
1 *170:X out[4] 47.5083 
*END

*D_NET *16 0.000632469
*CONN
*P out[5] O
*I *171:X O *D sky130_fd_sc_hd__buf_2
*CAP
1 out[5] 0.000294605
2 *171:X 0.000294605
3 out[5] out[6] 0
4 out[5] *35:12 4.32584e-05
5 out[4] out[5] 0
*RES
1 *171:X out[5] 48.4875 
*END

*D_NET *17 0.000827892
*CONN
*P out[6] O
*I *172:X O *D sky130_fd_sc_hd__buf_2
*CAP
1 out[6] 0.000413946
2 *172:X 0.000413946
3 out[6] out[7] 0
4 out[5] out[6] 0
*RES
1 *172:X out[6] 47.5941 
*END

*D_NET *18 0.00110166
*CONN
*P out[7] O
*I *173:X O *D sky130_fd_sc_hd__clkbuf_4
*CAP
1 out[7] 0.000175108
2 *173:X 0.000375724
3 *18:8 0.000550832
4 out[6] out[7] 0
*RES
1 *173:X *18:8 45.7161 
2 *18:8 out[7] 8.672 
*END

*D_NET *19 0.00770703
*CONN
*I *157:B1_N I *D sky130_fd_sc_hd__a21boi_1
*I *143:B I *D sky130_fd_sc_hd__nor2_1
*I *147:A3 I *D sky130_fd_sc_hd__o31a_1
*I *148:D I *D sky130_fd_sc_hd__or4_1
*I *144:B I *D sky130_fd_sc_hd__and2_1
*I *142:X O *D sky130_fd_sc_hd__or4_2
*CAP
1 *157:B1_N 0.000285018
2 *143:B 0.000118271
3 *147:A3 0
4 *148:D 0
5 *144:B 0
6 *142:X 0
7 *19:59 0.000668829
8 *19:45 0.000112726
9 *19:37 0.000451354
10 *19:29 0.000646894
11 *19:25 0.000857481
12 *19:14 0.000457506
13 *19:6 0.000741182
14 *143:B *143:A 5.3304e-05
15 *143:B *157:A2 5.37534e-05
16 *157:B1_N *157:A2 0.000487153
17 *157:B1_N *31:10 0.00010018
18 *157:B1_N *38:25 2.4754e-05
19 *157:B1_N *43:6 1.76557e-05
20 *19:14 *144:A 0.000776723
21 *19:14 *153:A 0
22 *19:14 *21:10 1.05235e-05
23 *19:14 *30:8 0.00019186
24 *19:14 *33:14 0
25 *19:14 *39:20 0.000151909
26 *19:25 *33:14 0
27 *19:25 *39:20 0.000218065
28 *19:29 *147:B1 5.56356e-05
29 *19:29 *28:43 1.14876e-05
30 *19:29 *39:24 7.44775e-05
31 *19:37 *20:23 4.75138e-05
32 *19:37 *25:12 3.31683e-05
33 *19:37 *39:24 0.000100061
34 *19:37 *39:32 0.000272038
35 *19:45 *146:A 1.34914e-05
36 *19:45 *148:C 6.7177e-06
37 *19:45 *23:6 5.56279e-05
38 *19:45 *23:14 7.81193e-05
39 *19:45 *23:35 5.3304e-05
40 *19:45 *24:16 2.40392e-05
41 *19:59 *143:A 1.12487e-05
42 *19:59 *28:43 0.000346225
43 *19:59 *33:14 0
44 *19:59 *38:25 0
45 *19:59 *39:20 4.07715e-05
46 *5:17 *19:45 5.79559e-05
*RES
1 *142:X *19:6 38 
2 *19:6 *19:14 28.1121 
3 *19:14 *144:B 23 
4 *19:6 *19:25 6.89786 
5 *19:25 *19:29 19.4329 
6 *19:29 *19:37 35.51 
7 *19:37 *19:45 32.6514 
8 *19:45 *148:D 23 
9 *19:29 *147:A3 23 
10 *19:25 *19:59 21.1314 
11 *19:59 *143:B 25.0714 
12 *19:59 *157:B1_N 30.7679 
*END

*D_NET *20 0.00480123
*CONN
*I *145:A I *D sky130_fd_sc_hd__nor2_1
*I *146:B I *D sky130_fd_sc_hd__xnor2_1
*I *143:Y O *D sky130_fd_sc_hd__nor2_1
*CAP
1 *145:A 3.77894e-05
2 *146:B 4.9502e-05
3 *143:Y 4.6575e-05
4 *20:23 0.00124076
5 *20:12 0.00135287
6 *20:8 0.000146976
7 *146:B *23:35 0.000142173
8 *146:B *24:16 2.31591e-05
9 *146:B *37:33 0.000103405
10 *20:8 *143:A 0.000141888
11 *20:8 *36:42 0.000141888
12 *20:12 *23:35 0.000165172
13 *20:12 *37:33 4.67488e-05
14 *20:23 *23:35 1.23106e-05
15 *20:23 *25:12 0
16 *20:23 *27:12 0.00106419
17 *20:23 *36:52 3.83059e-05
18 *19:37 *20:23 4.75138e-05
*RES
1 *143:Y *20:8 39.9057 
2 *20:8 *20:12 17.0507 
3 *20:12 *146:B 25.0507 
4 *20:12 *20:23 40.4993 
5 *20:23 *145:A 38.6214 
*END

*D_NET *21 0.00287746
*CONN
*I *145:B I *D sky130_fd_sc_hd__nor2_1
*I *144:X O *D sky130_fd_sc_hd__and2_1
*CAP
1 *145:B 0.000372308
2 *144:X 0.000342996
3 *21:10 0.000715304
4 *145:B *32:8 0.000394675
5 *21:10 *170:A 0.000237917
6 *21:10 *34:12 0
7 *21:10 *35:12 0.000781084
8 out[4] *21:10 2.26497e-05
9 *19:14 *21:10 1.05235e-05
*RES
1 *144:X *21:10 48.9786 
2 *21:10 *145:B 47.1971 
*END

*D_NET *22 0.00343699
*CONN
*I *149:A_N I *D sky130_fd_sc_hd__and2b_1
*I *147:X O *D sky130_fd_sc_hd__o31a_1
*CAP
1 *149:A_N 0
2 *147:X 0.000318609
3 *22:12 0.000611227
4 *22:8 0.000929836
5 *22:8 *147:A2 0.000353435
6 *22:8 *39:32 8.06804e-06
7 *22:12 *40:10 0.00121581
8 *6:17 *22:12 0
9 *7:17 *22:12 0
*RES
1 *147:X *22:8 42.4329 
2 *22:8 *22:12 30.9914 
3 *22:12 *149:A_N 23 
*END

*D_NET *23 0.00641532
*CONN
*I *151:B I *D sky130_fd_sc_hd__xor2_1
*I *149:B I *D sky130_fd_sc_hd__and2b_1
*I *148:X O *D sky130_fd_sc_hd__or4_1
*CAP
1 *151:B 0
2 *149:B 0
3 *148:X 0.000218319
4 *23:35 0.000735638
5 *23:14 0.000775835
6 *23:6 0.00172979
7 *23:14 *148:C 0.000130827
8 *23:14 *41:10 0.00132067
9 *23:35 *146:A 2.72867e-05
10 *23:35 *24:16 0.000693523
11 *23:35 *25:12 2.96154e-05
12 *23:35 *33:8 1.40958e-05
13 *23:35 *34:8 3.71369e-05
14 *146:B *23:35 0.000142173
15 *5:17 *23:6 0.000195866
16 *19:45 *23:6 5.56279e-05
17 *19:45 *23:14 7.81193e-05
18 *19:45 *23:35 5.3304e-05
19 *20:12 *23:35 0.000165172
20 *20:23 *23:35 1.23106e-05
*RES
1 *148:X *23:6 26.0036 
2 *23:6 *23:14 35.2793 
3 *23:14 *149:B 38 
4 *23:6 *23:35 44.645 
5 *23:35 *151:B 23 
*END

*D_NET *24 0.00450456
*CONN
*I *150:A I *D sky130_fd_sc_hd__clkbuf_1
*I *149:X O *D sky130_fd_sc_hd__and2b_1
*CAP
1 *150:A 0
2 *149:X 0.000106654
3 *24:16 0.0012561
4 *24:8 0.00136275
5 *24:16 *146:A 3.3577e-05
6 *24:16 *25:12 0.000437704
7 *24:16 *33:8 0.000560469
8 *24:16 *37:33 6.58415e-06
9 *146:B *24:16 2.31591e-05
10 *19:45 *24:16 2.40392e-05
11 *23:35 *24:16 0.000693523
*RES
1 *149:X *24:8 39.5743 
2 *24:8 *24:16 44.2071 
3 *24:16 *150:A 23 
*END

*D_NET *25 0.00548816
*CONN
*I *157:A2 I *D sky130_fd_sc_hd__a21boi_1
*I *155:A I *D sky130_fd_sc_hd__and2_1
*I *153:X O *D sky130_fd_sc_hd__or3_1
*CAP
1 *157:A2 0.000270965
2 *155:A 0.000237427
3 *153:X 3.94871e-05
4 *25:12 0.00139642
5 *25:8 0.000927511
6 *155:A *155:B 9.84794e-05
7 *155:A *27:8 0.000105159
8 *155:A *28:19 5.3304e-05
9 *155:A *43:6 0.000232401
10 *157:A2 *143:A 5.3304e-05
11 *157:A2 *27:8 9.34971e-05
12 *157:A2 *38:25 0.000185434
13 *157:A2 *43:6 0.000696047
14 *25:8 *39:12 5.73309e-05
15 *25:12 *148:C 0
16 *25:12 *27:12 0
17 *25:12 *36:42 0
18 *25:12 *40:23 0
19 *143:B *157:A2 5.37534e-05
20 *157:B1_N *157:A2 0.000487153
21 *19:37 *25:12 3.31683e-05
22 *20:23 *25:12 0
23 *23:35 *25:12 2.96154e-05
24 *24:16 *25:12 0.000437704
*RES
1 *153:X *25:8 38.6214 
2 *25:8 *25:12 31.6957 
3 *25:12 *155:A 28.8829 
4 *25:12 *157:A2 34.745 
*END

*D_NET *26 0.000492705
*CONN
*I *155:B I *D sky130_fd_sc_hd__and2_1
*I *154:Y O *D sky130_fd_sc_hd__o21ai_1
*CAP
1 *155:B 3.54515e-05
2 *154:Y 8.85311e-05
3 *26:8 0.000123983
4 *155:B *27:8 7.53384e-06
5 *26:8 *37:14 0.000138727
6 *155:A *155:B 9.84794e-05
*RES
1 *154:Y *26:8 39.9057 
2 *26:8 *155:B 39.0979 
*END

*D_NET *27 0.00402399
*CONN
*I *156:A I *D sky130_fd_sc_hd__clkbuf_1
*I *155:X O *D sky130_fd_sc_hd__and2_1
*CAP
1 *156:A 0
2 *155:X 0.00035465
3 *27:12 0.000445929
4 *27:8 0.000800579
5 *27:8 *28:19 2.93431e-05
6 *27:12 *153:C 1.47563e-05
7 *27:12 *28:51 0.000477079
8 *27:12 *36:42 4.85126e-05
9 *27:12 *36:52 0.00040943
10 *27:12 *37:33 0.000173325
11 *155:A *27:8 0.000105159
12 *155:B *27:8 7.53384e-06
13 *157:A2 *27:8 9.34971e-05
14 *20:23 *27:12 0.00106419
15 *25:12 *27:12 0
*RES
1 *155:X *27:8 44.815 
2 *27:8 *27:12 31.3436 
3 *27:12 *156:A 23 
*END

*D_NET *28 0.0068966
*CONN
*I *142:D I *D sky130_fd_sc_hd__or4_2
*I *153:C I *D sky130_fd_sc_hd__or3_1
*I *152:B I *D sky130_fd_sc_hd__xor2_1
*I *158:A I *D sky130_fd_sc_hd__clkbuf_1
*I *154:A2 I *D sky130_fd_sc_hd__o21ai_1
*I *159:X O *D sky130_fd_sc_hd__buf_1
*CAP
1 *142:D 0
2 *153:C 0.000199815
3 *152:B 2.30556e-05
4 *158:A 0
5 *154:A2 0
6 *159:X 0.000105602
7 *28:51 0.000366899
8 *28:43 0.000814042
9 *28:26 0.000900637
10 *28:19 0.000183728
11 *28:6 0.000519954
12 *153:C *153:A 0.000401409
13 *153:C *36:52 0.000380333
14 *153:C *37:33 8.02348e-05
15 *153:C *39:12 0.000146272
16 *28:6 *37:14 5.50049e-05
17 *28:19 *37:14 0.000213311
18 *28:26 *154:A1 0.000146822
19 *28:26 *36:19 5.34347e-05
20 *28:26 *36:42 3.22051e-05
21 *28:43 *143:A 0.000367689
22 *28:43 *29:8 0.000185428
23 *28:43 *36:42 0.000121818
24 *28:43 *39:24 0.000135037
25 *28:51 *37:33 0.000474383
26 *155:A *28:19 5.3304e-05
27 *3:11 *28:19 0
28 *4:15 *28:6 4.75087e-05
29 *4:15 *28:26 9.78729e-06
30 *19:29 *28:43 1.14876e-05
31 *19:59 *28:43 0.000346225
32 *27:8 *28:19 2.93431e-05
33 *27:12 *153:C 1.47563e-05
34 *27:12 *28:51 0.000477079
*RES
1 *159:X *28:6 25.0507 
2 *28:6 *154:A2 23 
3 *28:6 *28:19 33.9357 
4 *28:19 *158:A 23 
5 *28:6 *28:26 4.90929 
6 *28:26 *152:B 23.4971 
7 *28:26 *28:43 43.775 
8 *28:43 *28:51 22.25 
9 *28:51 *153:C 45.4986 
10 *28:51 *142:D 38 
*END

*D_NET *29 0.00136677
*CONN
*I *167:A I *D sky130_fd_sc_hd__buf_2
*I *152:X O *D sky130_fd_sc_hd__xor2_1
*CAP
1 *167:A 0
2 *152:X 0.000563169
3 *29:8 0.000563169
4 *29:8 *36:42 5.50049e-05
5 *28:43 *29:8 0.000185428
*RES
1 *152:X *29:8 34.1236 
2 *29:8 *167:A 23 
*END

*D_NET *30 0.00329223
*CONN
*I *168:A I *D sky130_fd_sc_hd__buf_2
*I *156:X O *D sky130_fd_sc_hd__clkbuf_1
*CAP
1 *168:A 0
2 *156:X 0.000430945
3 *30:14 0.000535798
4 *30:8 0.000966743
5 *30:8 *144:A 2.25419e-05
6 *30:8 *153:A 5.67058e-05
7 *30:8 *39:12 2.65879e-05
8 *30:14 *170:A 6.48142e-05
9 *30:14 *34:12 0.000501456
10 *30:14 *35:8 9.84794e-05
11 *30:14 *35:12 0.000376842
12 *30:14 *42:10 1.94522e-05
13 *19:14 *30:8 0.00019186
*RES
1 *156:X *30:8 46.2443 
2 *30:8 *30:14 31.6336 
3 *30:14 *168:A 23 
*END

*D_NET *31 0.00140572
*CONN
*I *169:A I *D sky130_fd_sc_hd__buf_2
*I *157:Y O *D sky130_fd_sc_hd__a21boi_1
*CAP
1 *169:A 0
2 *157:Y 0.000413422
3 *31:10 0.000413422
4 *31:10 *35:12 0.000465951
5 *31:10 *38:25 0
6 out[2] *31:10 1.27424e-05
7 *157:B1_N *31:10 0.00010018
*RES
1 *157:Y *31:10 47.8186 
2 *31:10 *169:A 38 
*END

*D_NET *32 0.0031233
*CONN
*I *170:A I *D sky130_fd_sc_hd__buf_2
*I *145:Y O *D sky130_fd_sc_hd__nor2_1
*CAP
1 *170:A 0.000275777
2 *145:Y 0.000525038
3 *32:8 0.000800815
4 *170:A *34:12 0.000811525
5 *170:A *35:12 0
6 out[4] *170:A 1.27424e-05
7 *145:B *32:8 0.000394675
8 *21:10 *170:A 0.000237917
9 *30:14 *170:A 6.48142e-05
*RES
1 *145:Y *32:8 46.2443 
2 *32:8 *170:A 48.7093 
*END

*D_NET *33 0.00466753
*CONN
*I *171:A I *D sky130_fd_sc_hd__buf_2
*I *146:Y O *D sky130_fd_sc_hd__xnor2_1
*CAP
1 *171:A 0
2 *146:Y 0.000479908
3 *33:14 0.00128228
4 *33:8 0.00176219
5 *33:14 *142:A 0.000139647
6 *33:14 *153:A 0
7 *33:14 *38:25 0.000428942
8 *33:14 *42:10 0
9 *19:14 *33:14 0
10 *19:25 *33:14 0
11 *19:59 *33:14 0
12 *23:35 *33:8 1.40958e-05
13 *24:16 *33:8 0.000560469
*RES
1 *146:Y *33:8 44.815 
2 *33:8 *33:14 39.1943 
3 *33:14 *171:A 23 
*END

*D_NET *34 0.00506744
*CONN
*I *172:A I *D sky130_fd_sc_hd__buf_2
*I *150:X O *D sky130_fd_sc_hd__clkbuf_1
*CAP
1 *172:A 0
2 *150:X 0.000168152
3 *34:12 0.000685726
4 *34:8 0.000853878
5 *34:12 *35:12 0
6 *34:12 *42:10 0.00200957
7 *170:A *34:12 0.000811525
8 *21:10 *34:12 0
9 *23:35 *34:8 3.71369e-05
10 *30:14 *34:12 0.000501456
*RES
1 *150:X *34:8 40.0507 
2 *34:8 *34:12 42.6121 
3 *34:12 *172:A 23 
*END

*D_NET *35 0.00400919
*CONN
*I *173:A I *D sky130_fd_sc_hd__clkbuf_4
*I *151:X O *D sky130_fd_sc_hd__xor2_1
*CAP
1 *173:A 0
2 *151:X 4.56652e-05
3 *35:12 0.00105449
4 *35:8 0.00110016
5 *35:12 *38:25 0
6 out[3] *35:12 4.32584e-05
7 out[5] *35:12 4.32584e-05
8 *170:A *35:12 0
9 *21:10 *35:12 0.000781084
10 *30:14 *35:8 9.84794e-05
11 *30:14 *35:12 0.000376842
12 *31:10 *35:12 0.000465951
13 *34:12 *35:12 0
*RES
1 *151:X *35:8 39.0979 
2 *35:8 *35:12 43.6686 
3 *35:12 *173:A 23 
*END

*D_NET *36 0.00557634
*CONN
*I *142:C I *D sky130_fd_sc_hd__or4_2
*I *153:B I *D sky130_fd_sc_hd__or3_1
*I *152:A I *D sky130_fd_sc_hd__xor2_1
*I *154:A1 I *D sky130_fd_sc_hd__o21ai_1
*I *160:X O *D sky130_fd_sc_hd__buf_1
*CAP
1 *142:C 0
2 *153:B 0
3 *152:A 0
4 *154:A1 8.62502e-05
5 *160:X 0
6 *36:52 0.000336799
7 *36:42 0.00103648
8 *36:19 0.000906123
9 *36:4 0.000292691
10 *36:42 *143:A 0.000191999
11 *36:42 *37:33 0.000684888
12 *36:42 *39:20 0.000473885
13 *36:52 *153:A 7.72406e-05
14 *153:C *36:52 0.000380333
15 *4:15 *154:A1 6.2228e-05
16 *20:8 *36:42 0.000141888
17 *20:23 *36:52 3.83059e-05
18 *25:12 *36:42 0
19 *27:12 *36:42 4.85126e-05
20 *27:12 *36:52 0.00040943
21 *28:26 *154:A1 0.000146822
22 *28:26 *36:19 5.34347e-05
23 *28:26 *36:42 3.22051e-05
24 *28:43 *36:42 0.000121818
25 *29:8 *36:42 5.50049e-05
*RES
1 *160:X *36:4 23 
2 *36:4 *154:A1 26.2729 
3 *36:4 *36:19 3.37643 
4 *36:19 *152:A 23 
5 *36:19 *36:42 48.9121 
6 *36:42 *36:52 38.6793 
7 *36:52 *153:B 23 
8 *36:42 *142:C 23 
*END

*D_NET *37 0.00572089
*CONN
*I *142:B I *D sky130_fd_sc_hd__or4_2
*I *153:A I *D sky130_fd_sc_hd__or3_1
*I *154:B1 I *D sky130_fd_sc_hd__o21ai_1
*I *161:X O *D sky130_fd_sc_hd__buf_1
*CAP
1 *142:B 0
2 *153:A 0.000244194
3 *154:B1 0
4 *161:X 0
5 *37:33 0.000972432
6 *37:14 0.00034778
7 *37:4 0.00107602
8 *153:A *39:12 3.13896e-05
9 *153:A *39:20 0.000151909
10 *37:14 *146:A 0.000146822
11 *37:14 *40:23 6.07611e-06
12 *37:33 *146:A 0.000174445
13 *37:33 *39:20 2.84809e-05
14 *146:B *37:33 0.000103405
15 *153:C *153:A 0.000401409
16 *153:C *37:33 8.02348e-05
17 *3:11 *37:14 0
18 *4:15 *37:14 2.93747e-05
19 *19:14 *153:A 0
20 *20:12 *37:33 4.67488e-05
21 *24:16 *37:33 6.58415e-06
22 *26:8 *37:14 0.000138727
23 *27:12 *37:33 0.000173325
24 *28:6 *37:14 5.50049e-05
25 *28:19 *37:14 0.000213311
26 *28:51 *37:33 0.000474383
27 *30:8 *153:A 5.67058e-05
28 *33:14 *153:A 0
29 *36:42 *37:33 0.000684888
30 *36:52 *153:A 7.72406e-05
*RES
1 *161:X *37:4 23 
2 *37:4 *37:14 37.2707 
3 *37:14 *154:B1 23 
4 *37:4 *37:33 32.2757 
5 *37:33 *153:A 45.6021 
6 *37:33 *142:B 38 
*END

*D_NET *38 0.00522704
*CONN
*I *157:A1 I *D sky130_fd_sc_hd__a21boi_1
*I *142:A I *D sky130_fd_sc_hd__or4_2
*I *162:X O *D sky130_fd_sc_hd__clkbuf_1
*CAP
1 *157:A1 0
2 *142:A 0.000320498
3 *162:X 0.00126047
4 *38:25 0.000422778
5 *38:8 0.000743277
6 *38:6 0.00126047
7 *142:A *42:10 4.3407e-05
8 *38:25 *42:10 0.000168453
9 *38:25 *43:6 0.000228909
10 *157:A2 *38:25 0.000185434
11 *157:B1_N *38:25 2.4754e-05
12 *19:59 *38:25 0
13 *31:10 *38:25 0
14 *33:14 *142:A 0.000139647
15 *33:14 *38:25 0.000428942
16 *35:12 *38:25 0
*RES
1 *162:X *38:6 36.9614 
2 *38:6 *38:8 15 
3 *38:8 *142:A 43.8621 
4 *38:8 *38:25 27.5321 
5 *38:25 *157:A1 23 
*END

*D_NET *39 0.0091454
*CONN
*I *144:A I *D sky130_fd_sc_hd__and2_1
*I *143:A I *D sky130_fd_sc_hd__nor2_1
*I *147:A1 I *D sky130_fd_sc_hd__o31a_1
*I *148:A I *D sky130_fd_sc_hd__or4_1
*I *163:X O *D sky130_fd_sc_hd__buf_1
*CAP
1 *144:A 0.000659823
2 *143:A 0.000224386
3 *147:A1 2.16901e-05
4 *148:A 0
5 *163:X 0.000779395
6 *39:32 0.000339767
7 *39:24 0.000582362
8 *39:20 0.000773424
9 *39:12 0.00176735
10 *147:A1 *147:B1 3.23857e-06
11 *39:24 *147:B1 6.96783e-05
12 *39:32 *147:A2 1.21972e-05
13 *39:32 *147:B1 0.000213741
14 *39:32 *40:23 0.000163361
15 *143:B *143:A 5.3304e-05
16 *153:A *39:12 3.13896e-05
17 *153:A *39:20 0.000151909
18 *153:C *39:12 0.000146272
19 *157:A2 *143:A 5.3304e-05
20 *5:17 *39:32 0
21 *19:14 *144:A 0.000776723
22 *19:14 *39:20 0.000151909
23 *19:25 *39:20 0.000218065
24 *19:29 *39:24 7.44775e-05
25 *19:37 *39:24 0.000100061
26 *19:37 *39:32 0.000272038
27 *19:59 *143:A 1.12487e-05
28 *19:59 *39:20 4.07715e-05
29 *20:8 *143:A 0.000141888
30 *22:8 *39:32 8.06804e-06
31 *25:8 *39:12 5.73309e-05
32 *28:43 *143:A 0.000367689
33 *28:43 *39:24 0.000135037
34 *30:8 *144:A 2.25419e-05
35 *30:8 *39:12 2.65879e-05
36 *36:42 *143:A 0.000191999
37 *36:42 *39:20 0.000473885
38 *37:33 *39:20 2.84809e-05
*RES
1 *163:X *39:12 34.2893 
2 *39:12 *39:20 26.8279 
3 *39:20 *39:24 19.4329 
4 *39:24 *39:32 37.6436 
5 *39:32 *148:A 23 
6 *39:24 *147:A1 23.4971 
7 *39:20 *143:A 44.0486 
8 *39:12 *144:A 33.5229 
*END

*D_NET *40 0.00640643
*CONN
*I *148:B I *D sky130_fd_sc_hd__or4_1
*I *146:A I *D sky130_fd_sc_hd__xnor2_1
*I *147:A2 I *D sky130_fd_sc_hd__o31a_1
*I *164:X O *D sky130_fd_sc_hd__buf_1
*CAP
1 *148:B 0
2 *146:A 0.000213416
3 *147:A2 0.000171095
4 *164:X 4.96829e-05
5 *40:23 0.000400953
6 *40:10 0.000776772
7 *40:8 0.000467823
8 *147:A2 *147:B1 0.000443883
9 *40:10 *41:10 0.00139868
10 *40:23 *148:C 0.000234373
11 *40:23 *41:10 3.70187e-05
12 *5:17 *146:A 6.62309e-05
13 *19:45 *146:A 1.34914e-05
14 *22:8 *147:A2 0.000353435
15 *22:12 *40:10 0.00121581
16 *23:35 *146:A 2.72867e-05
17 *24:16 *146:A 3.3577e-05
18 *25:12 *40:23 0
19 *37:14 *146:A 0.000146822
20 *37:14 *40:23 6.07611e-06
21 *37:33 *146:A 0.000174445
22 *39:32 *147:A2 1.21972e-05
23 *39:32 *40:23 0.000163361
*RES
1 *164:X *40:8 38.6214 
2 *40:8 *40:10 18.4564 
3 *40:10 *147:A2 43.3857 
4 *40:10 *40:23 19.3707 
5 *40:23 *146:A 28.7793 
6 *40:23 *148:B 23 
*END

*D_NET *41 0.00616899
*CONN
*I *148:C I *D sky130_fd_sc_hd__or4_1
*I *147:B1 I *D sky130_fd_sc_hd__o31a_1
*I *165:X O *D sky130_fd_sc_hd__clkbuf_1
*CAP
1 *148:C 0.000142125
2 *147:B1 0.000182468
3 *165:X 9.2735e-05
4 *41:10 0.00103453
5 *41:8 0.00080267
6 *147:A1 *147:B1 3.23857e-06
7 *147:A2 *147:B1 0.000443883
8 *19:29 *147:B1 5.56356e-05
9 *19:45 *148:C 6.7177e-06
10 *23:14 *148:C 0.000130827
11 *23:14 *41:10 0.00132067
12 *25:12 *148:C 0
13 *39:24 *147:B1 6.96783e-05
14 *39:32 *147:B1 0.000213741
15 *40:10 *41:10 0.00139868
16 *40:23 *148:C 0.000234373
17 *40:23 *41:10 3.70187e-05
*RES
1 *165:X *41:8 39.0979 
2 *41:8 *41:10 24.4429 
3 *41:10 *147:B1 44.3593 
4 *41:10 *148:C 41.3143 
*END

*D_NET *42 0.0062983
*CONN
*I *151:A I *D sky130_fd_sc_hd__xor2_1
*I *166:X O *D sky130_fd_sc_hd__buf_1
*CAP
1 *151:A 0
2 *166:X 0.00108498
3 *42:10 0.000943732
4 *42:6 0.00202871
5 *142:A *42:10 4.3407e-05
6 *30:14 *42:10 1.94522e-05
7 *33:14 *42:10 0
8 *34:12 *42:10 0.00200957
9 *38:25 *42:10 0.000168453
*RES
1 *166:X *42:6 36.9614 
2 *42:6 *42:10 42.26 
3 *42:10 *151:A 38 
*END

*D_NET *43 0.00315675
*CONN
*I *174:A I *D sky130_fd_sc_hd__buf_2
*I *158:X O *D sky130_fd_sc_hd__clkbuf_1
*CAP
1 *174:A 0
2 *158:X 0.000880067
3 *43:12 0.000110804
4 *43:6 0.000990871
5 *155:A *43:6 0.000232401
6 *157:A2 *43:6 0.000696047
7 *157:B1_N *43:6 1.76557e-05
8 *38:25 *43:6 0.000228909
*RES
1 *158:X *43:6 37.4379 
2 *43:6 *43:12 31.9057 
3 *43:12 *174:A 23 
*END
