*SPEF "ieee 1481-1999"
*DESIGN "ZeroToFiveCounter"
*DATE "22:11:55 Saturday May 24, 2025"
*VENDOR "The OpenROAD Project"
*PROGRAM "OpenROAD"
*VERSION "b16bda7e82721d10566ff7e2b68f1ff0be9f9e38"
*DESIGN_FLOW "NAME_SCOPE LOCAL" "PIN_CAP NONE"
*DIVIDER /
*DELIMITER :
*BUS_DELIMITER []
*T_UNIT 1 NS
*C_UNIT 1 PF
*R_UNIT 1 OHM
*L_UNIT 1 HENRY

*NAME_MAP
*1 net8
*2 net9
*3 net10
*4 net11
*5 BTNC
*6 CLK100MHZ
*9 seg[0]
*10 seg[1]
*11 seg[2]
*12 seg[3]
*13 seg[4]
*14 seg[5]
*15 seg[6]
*16 _000_
*17 _001_
*18 _002_
*19 _003_
*20 _004_
*21 _005_
*22 _006_
*23 _007_
*24 _008_
*25 _009_
*26 _010_
*27 _011_
*28 _012_
*29 _013_
*30 _014_
*31 _015_
*32 _016_
*33 _017_
*34 _018_
*35 _019_
*36 _020_
*37 _021_
*38 _022_
*39 _023_
*40 _024_
*41 _025_
*42 _026_
*43 _027_
*44 _028_
*45 _029_
*46 _030_
*47 _031_
*48 _032_
*49 _033_
*50 _034_
*51 _035_
*52 _036_
*53 _037_
*54 _038_
*55 _039_
*56 _040_
*57 _041_
*58 _042_
*59 _043_
*60 _044_
*61 _045_
*62 _046_
*63 _047_
*64 _048_
*65 _049_
*66 _050_
*67 _051_
*68 _052_
*69 _053_
*70 _054_
*71 _055_
*72 _056_
*73 _057_
*74 _058_
*75 _059_
*76 _060_
*77 _061_
*78 _062_
*79 _063_
*80 _064_
*81 _065_
*82 _066_
*83 _067_
*84 _068_
*85 _069_
*86 _070_
*87 _071_
*88 _072_
*89 _073_
*90 _074_
*91 _075_
*92 _076_
*93 _077_
*94 _078_
*95 _079_
*96 _080_
*97 _081_
*98 _082_
*99 _083_
*100 _084_
*101 _085_
*102 _086_
*103 _087_
*104 _088_
*105 _089_
*106 _090_
*107 _091_
*108 _092_
*109 _093_
*110 _094_
*111 _095_
*112 _096_
*113 _097_
*114 _098_
*115 _099_
*116 _100_
*117 _101_
*118 _102_
*119 _103_
*120 _104_
*121 _105_
*122 _106_
*123 _107_
*124 _108_
*125 _109_
*126 _110_
*127 _111_
*128 _112_
*129 _113_
*130 _114_
*131 _115_
*132 _116_
*133 _117_
*134 _118_
*135 _119_
*136 clknet_0_CLK100MHZ
*137 clknet_2_0__leaf_CLK100MHZ
*138 clknet_2_1__leaf_CLK100MHZ
*139 clknet_2_2__leaf_CLK100MHZ
*140 clknet_2_3__leaf_CLK100MHZ
*141 decoder\.count\[0\]
*142 decoder\.count\[1\]
*143 decoder\.count\[2\]
*144 decoder\.count\[3\]
*145 decoder\.delay\[0\]
*146 decoder\.delay\[10\]
*147 decoder\.delay\[11\]
*148 decoder\.delay\[12\]
*149 decoder\.delay\[13\]
*150 decoder\.delay\[14\]
*151 decoder\.delay\[15\]
*152 decoder\.delay\[16\]
*153 decoder\.delay\[17\]
*154 decoder\.delay\[18\]
*155 decoder\.delay\[19\]
*156 decoder\.delay\[1\]
*157 decoder\.delay\[20\]
*158 decoder\.delay\[21\]
*159 decoder\.delay\[22\]
*160 decoder\.delay\[23\]
*161 decoder\.delay\[24\]
*162 decoder\.delay\[2\]
*163 decoder\.delay\[3\]
*164 decoder\.delay\[4\]
*165 decoder\.delay\[5\]
*166 decoder\.delay\[6\]
*167 decoder\.delay\[7\]
*168 decoder\.delay\[8\]
*169 decoder\.delay\[9\]
*170 net1
*171 net2
*172 net3
*173 net4
*174 net5
*175 net6
*176 net7
*177 ANTENNA_1
*178 FILLER_0_0_10
*179 FILLER_0_0_100
*180 FILLER_0_0_124
*181 FILLER_0_0_22
*182 FILLER_0_0_29
*183 FILLER_0_0_3
*184 FILLER_0_0_41
*185 FILLER_0_0_48
*186 FILLER_0_0_57
*187 FILLER_0_0_69
*188 FILLER_0_0_80
*189 FILLER_0_0_88
*190 FILLER_0_10_112
*191 FILLER_0_10_12
*192 FILLER_0_10_124
*193 FILLER_0_10_23
*194 FILLER_0_10_27
*195 FILLER_0_10_29
*196 FILLER_0_10_3
*197 FILLER_0_10_41
*198 FILLER_0_10_53
*199 FILLER_0_10_65
*200 FILLER_0_10_77
*201 FILLER_0_10_83
*202 FILLER_0_10_85
*203 FILLER_0_11_105
*204 FILLER_0_11_111
*205 FILLER_0_11_113
*206 FILLER_0_11_121
*207 FILLER_0_11_18
*208 FILLER_0_11_30
*209 FILLER_0_11_42
*210 FILLER_0_11_54
*211 FILLER_0_11_57
*212 FILLER_0_11_6
*213 FILLER_0_11_69
*214 FILLER_0_11_81
*215 FILLER_0_11_93
*216 FILLER_0_12_109
*217 FILLER_0_12_121
*218 FILLER_0_12_15
*219 FILLER_0_12_27
*220 FILLER_0_12_29
*221 FILLER_0_12_3
*222 FILLER_0_12_41
*223 FILLER_0_12_53
*224 FILLER_0_12_65
*225 FILLER_0_12_77
*226 FILLER_0_12_83
*227 FILLER_0_12_85
*228 FILLER_0_12_97
*229 FILLER_0_13_105
*230 FILLER_0_13_111
*231 FILLER_0_13_123
*232 FILLER_0_13_15
*233 FILLER_0_13_27
*234 FILLER_0_13_3
*235 FILLER_0_13_39
*236 FILLER_0_13_51
*237 FILLER_0_13_55
*238 FILLER_0_13_57
*239 FILLER_0_13_65
*240 FILLER_0_13_93
*241 FILLER_0_14_107
*242 FILLER_0_14_119
*243 FILLER_0_14_15
*244 FILLER_0_14_27
*245 FILLER_0_14_3
*246 FILLER_0_14_35
*247 FILLER_0_14_47
*248 FILLER_0_14_57
*249 FILLER_0_14_69
*250 FILLER_0_14_81
*251 FILLER_0_14_85
*252 FILLER_0_14_97
*253 FILLER_0_15_110
*254 FILLER_0_15_113
*255 FILLER_0_15_15
*256 FILLER_0_15_23
*257 FILLER_0_15_3
*258 FILLER_0_15_46
*259 FILLER_0_15_77
*260 FILLER_0_15_81
*261 FILLER_0_15_86
*262 FILLER_0_15_98
*263 FILLER_0_16_109
*264 FILLER_0_16_115
*265 FILLER_0_16_119
*266 FILLER_0_16_14
*267 FILLER_0_16_26
*268 FILLER_0_16_29
*269 FILLER_0_16_41
*270 FILLER_0_16_53
*271 FILLER_0_16_6
*272 FILLER_0_16_75
*273 FILLER_0_16_83
*274 FILLER_0_16_85
*275 FILLER_0_16_97
*276 FILLER_0_17_101
*277 FILLER_0_17_105
*278 FILLER_0_17_113
*279 FILLER_0_17_29
*280 FILLER_0_17_41
*281 FILLER_0_17_53
*282 FILLER_0_17_65
*283 FILLER_0_17_74
*284 FILLER_0_17_81
*285 FILLER_0_17_93
*286 FILLER_0_18_103
*287 FILLER_0_18_15
*288 FILLER_0_18_27
*289 FILLER_0_18_29
*290 FILLER_0_18_36
*291 FILLER_0_18_63
*292 FILLER_0_18_75
*293 FILLER_0_18_83
*294 FILLER_0_18_85
*295 FILLER_0_18_97
*296 FILLER_0_19_105
*297 FILLER_0_19_111
*298 FILLER_0_19_119
*299 FILLER_0_19_16
*300 FILLER_0_19_29
*301 FILLER_0_19_3
*302 FILLER_0_19_57
*303 FILLER_0_19_69
*304 FILLER_0_19_7
*305 FILLER_0_19_81
*306 FILLER_0_19_93
*307 FILLER_0_1_108
*308 FILLER_0_1_113
*309 FILLER_0_1_38
*310 FILLER_0_1_46
*311 FILLER_0_1_54
*312 FILLER_0_1_57
*313 FILLER_0_1_66
*314 FILLER_0_1_72
*315 FILLER_0_1_84
*316 FILLER_0_1_9
*317 FILLER_0_1_96
*318 FILLER_0_20_109
*319 FILLER_0_20_121
*320 FILLER_0_20_15
*321 FILLER_0_20_27
*322 FILLER_0_20_29
*323 FILLER_0_20_3
*324 FILLER_0_20_37
*325 FILLER_0_20_45
*326 FILLER_0_20_57
*327 FILLER_0_20_69
*328 FILLER_0_20_81
*329 FILLER_0_20_85
*330 FILLER_0_20_97
*331 FILLER_0_21_101
*332 FILLER_0_21_109
*333 FILLER_0_21_113
*334 FILLER_0_21_14
*335 FILLER_0_21_20
*336 FILLER_0_21_28
*337 FILLER_0_21_3
*338 FILLER_0_21_54
*339 FILLER_0_21_57
*340 FILLER_0_21_77
*341 FILLER_0_21_89
*342 FILLER_0_22_100
*343 FILLER_0_22_110
*344 FILLER_0_22_15
*345 FILLER_0_22_22
*346 FILLER_0_22_29
*347 FILLER_0_22_3
*348 FILLER_0_22_37
*349 FILLER_0_22_59
*350 FILLER_0_22_71
*351 FILLER_0_22_83
*352 FILLER_0_22_88
*353 FILLER_0_23_106
*354 FILLER_0_23_113
*355 FILLER_0_23_3
*356 FILLER_0_23_35
*357 FILLER_0_23_45
*358 FILLER_0_23_52
*359 FILLER_0_23_57
*360 FILLER_0_23_66
*361 FILLER_0_23_94
*362 FILLER_0_24_102
*363 FILLER_0_24_123
*364 FILLER_0_24_15
*365 FILLER_0_24_27
*366 FILLER_0_24_29
*367 FILLER_0_24_3
*368 FILLER_0_24_41
*369 FILLER_0_24_53
*370 FILLER_0_24_82
*371 FILLER_0_24_85
*372 FILLER_0_24_97
*373 FILLER_0_25_12
*374 FILLER_0_25_120
*375 FILLER_0_25_124
*376 FILLER_0_25_24
*377 FILLER_0_25_3
*378 FILLER_0_25_36
*379 FILLER_0_25_41
*380 FILLER_0_25_53
*381 FILLER_0_25_57
*382 FILLER_0_26_122
*383 FILLER_0_26_24
*384 FILLER_0_26_29
*385 FILLER_0_26_3
*386 FILLER_0_26_41
*387 FILLER_0_26_73
*388 FILLER_0_26_81
*389 FILLER_0_26_85
*390 FILLER_0_26_9
*391 FILLER_0_26_93
*392 FILLER_0_26_97
*393 FILLER_0_27_108
*394 FILLER_0_27_117
*395 FILLER_0_27_121
*396 FILLER_0_27_15
*397 FILLER_0_27_26
*398 FILLER_0_27_3
*399 FILLER_0_27_38
*400 FILLER_0_27_48
*401 FILLER_0_27_57
*402 FILLER_0_27_63
*403 FILLER_0_27_69
*404 FILLER_0_27_81
*405 FILLER_0_28_119
*406 FILLER_0_28_17
*407 FILLER_0_28_25
*408 FILLER_0_28_29
*409 FILLER_0_28_3
*410 FILLER_0_28_37
*411 FILLER_0_28_59
*412 FILLER_0_28_65
*413 FILLER_0_28_71
*414 FILLER_0_28_83
*415 FILLER_0_28_85
*416 FILLER_0_28_9
*417 FILLER_0_28_93
*418 FILLER_0_29_107
*419 FILLER_0_29_111
*420 FILLER_0_29_113
*421 FILLER_0_29_15
*422 FILLER_0_29_27
*423 FILLER_0_29_3
*424 FILLER_0_29_33
*425 FILLER_0_29_44
*426 FILLER_0_29_57
*427 FILLER_0_29_69
*428 FILLER_0_29_82
*429 FILLER_0_29_90
*430 FILLER_0_29_95
*431 FILLER_0_2_119
*432 FILLER_0_2_15
*433 FILLER_0_2_27
*434 FILLER_0_2_29
*435 FILLER_0_2_3
*436 FILLER_0_2_40
*437 FILLER_0_2_44
*438 FILLER_0_2_53
*439 FILLER_0_2_62
*440 FILLER_0_2_69
*441 FILLER_0_2_7
*442 FILLER_0_2_81
*443 FILLER_0_2_85
*444 FILLER_0_2_91
*445 FILLER_0_2_97
*446 FILLER_0_30_111
*447 FILLER_0_30_119
*448 FILLER_0_30_15
*449 FILLER_0_30_27
*450 FILLER_0_30_29
*451 FILLER_0_30_3
*452 FILLER_0_30_37
*453 FILLER_0_30_60
*454 FILLER_0_30_72
*455 FILLER_0_30_85
*456 FILLER_0_30_93
*457 FILLER_0_30_99
*458 FILLER_0_31_109
*459 FILLER_0_31_113
*460 FILLER_0_31_121
*461 FILLER_0_31_15
*462 FILLER_0_31_19
*463 FILLER_0_31_27
*464 FILLER_0_31_29
*465 FILLER_0_31_3
*466 FILLER_0_31_41
*467 FILLER_0_31_53
*468 FILLER_0_31_57
*469 FILLER_0_31_69
*470 FILLER_0_31_81
*471 FILLER_0_31_85
*472 FILLER_0_31_97
*473 FILLER_0_3_111
*474 FILLER_0_3_113
*475 FILLER_0_3_12
*476 FILLER_0_3_121
*477 FILLER_0_3_24
*478 FILLER_0_3_3
*479 FILLER_0_3_34
*480 FILLER_0_3_48
*481 FILLER_0_3_57
*482 FILLER_0_3_68
*483 FILLER_0_3_87
*484 FILLER_0_3_99
*485 FILLER_0_4_102
*486 FILLER_0_4_106
*487 FILLER_0_4_11
*488 FILLER_0_4_123
*489 FILLER_0_4_16
*490 FILLER_0_4_29
*491 FILLER_0_4_3
*492 FILLER_0_4_41
*493 FILLER_0_4_61
*494 FILLER_0_4_85
*495 FILLER_0_4_93
*496 FILLER_0_5_105
*497 FILLER_0_5_111
*498 FILLER_0_5_113
*499 FILLER_0_5_121
*500 FILLER_0_5_23
*501 FILLER_0_5_53
*502 FILLER_0_5_57
*503 FILLER_0_5_63
*504 FILLER_0_5_69
*505 FILLER_0_5_81
*506 FILLER_0_5_93
*507 FILLER_0_6_106
*508 FILLER_0_6_115
*509 FILLER_0_6_123
*510 FILLER_0_6_18
*511 FILLER_0_6_26
*512 FILLER_0_6_29
*513 FILLER_0_6_35
*514 FILLER_0_6_57
*515 FILLER_0_6_6
*516 FILLER_0_6_83
*517 FILLER_0_7_10
*518 FILLER_0_7_108
*519 FILLER_0_7_113
*520 FILLER_0_7_16
*521 FILLER_0_7_22
*522 FILLER_0_7_3
*523 FILLER_0_7_49
*524 FILLER_0_7_55
*525 FILLER_0_7_57
*526 FILLER_0_7_63
*527 FILLER_0_7_96
*528 FILLER_0_8_106
*529 FILLER_0_8_115
*530 FILLER_0_8_123
*531 FILLER_0_8_19
*532 FILLER_0_8_24
*533 FILLER_0_8_3
*534 FILLER_0_8_35
*535 FILLER_0_8_43
*536 FILLER_0_8_55
*537 FILLER_0_8_67
*538 FILLER_0_8_7
*539 FILLER_0_8_79
*540 FILLER_0_8_83
*541 FILLER_0_8_85
*542 FILLER_0_8_97
*543 FILLER_0_9_111
*544 FILLER_0_9_113
*545 FILLER_0_9_3
*546 FILLER_0_9_34
*547 FILLER_0_9_57
*548 FILLER_0_9_70
*549 FILLER_0_9_91
*550 FILLER_0_9_99
*551 PHY_EDGE_ROW_0_Left_32
*552 PHY_EDGE_ROW_0_Right_0
*553 PHY_EDGE_ROW_10_Left_42
*554 PHY_EDGE_ROW_10_Right_10
*555 PHY_EDGE_ROW_11_Left_43
*556 PHY_EDGE_ROW_11_Right_11
*557 PHY_EDGE_ROW_12_Left_44
*558 PHY_EDGE_ROW_12_Right_12
*559 PHY_EDGE_ROW_13_Left_45
*560 PHY_EDGE_ROW_13_Right_13
*561 PHY_EDGE_ROW_14_Left_46
*562 PHY_EDGE_ROW_14_Right_14
*563 PHY_EDGE_ROW_15_Left_47
*564 PHY_EDGE_ROW_15_Right_15
*565 PHY_EDGE_ROW_16_Left_48
*566 PHY_EDGE_ROW_16_Right_16
*567 PHY_EDGE_ROW_17_Left_49
*568 PHY_EDGE_ROW_17_Right_17
*569 PHY_EDGE_ROW_18_Left_50
*570 PHY_EDGE_ROW_18_Right_18
*571 PHY_EDGE_ROW_19_Left_51
*572 PHY_EDGE_ROW_19_Right_19
*573 PHY_EDGE_ROW_1_Left_33
*574 PHY_EDGE_ROW_1_Right_1
*575 PHY_EDGE_ROW_20_Left_52
*576 PHY_EDGE_ROW_20_Right_20
*577 PHY_EDGE_ROW_21_Left_53
*578 PHY_EDGE_ROW_21_Right_21
*579 PHY_EDGE_ROW_22_Left_54
*580 PHY_EDGE_ROW_22_Right_22
*581 PHY_EDGE_ROW_23_Left_55
*582 PHY_EDGE_ROW_23_Right_23
*583 PHY_EDGE_ROW_24_Left_56
*584 PHY_EDGE_ROW_24_Right_24
*585 PHY_EDGE_ROW_25_Left_57
*586 PHY_EDGE_ROW_25_Right_25
*587 PHY_EDGE_ROW_26_Left_58
*588 PHY_EDGE_ROW_26_Right_26
*589 PHY_EDGE_ROW_27_Left_59
*590 PHY_EDGE_ROW_27_Right_27
*591 PHY_EDGE_ROW_28_Left_60
*592 PHY_EDGE_ROW_28_Right_28
*593 PHY_EDGE_ROW_29_Left_61
*594 PHY_EDGE_ROW_29_Right_29
*595 PHY_EDGE_ROW_2_Left_34
*596 PHY_EDGE_ROW_2_Right_2
*597 PHY_EDGE_ROW_30_Left_62
*598 PHY_EDGE_ROW_30_Right_30
*599 PHY_EDGE_ROW_31_Left_63
*600 PHY_EDGE_ROW_31_Right_31
*601 PHY_EDGE_ROW_3_Left_35
*602 PHY_EDGE_ROW_3_Right_3
*603 PHY_EDGE_ROW_4_Left_36
*604 PHY_EDGE_ROW_4_Right_4
*605 PHY_EDGE_ROW_5_Left_37
*606 PHY_EDGE_ROW_5_Right_5
*607 PHY_EDGE_ROW_6_Left_38
*608 PHY_EDGE_ROW_6_Right_6
*609 PHY_EDGE_ROW_7_Left_39
*610 PHY_EDGE_ROW_7_Right_7
*611 PHY_EDGE_ROW_8_Left_40
*612 PHY_EDGE_ROW_8_Right_8
*613 PHY_EDGE_ROW_9_Left_41
*614 PHY_EDGE_ROW_9_Right_9
*615 TAP_TAPCELL_ROW_0_64
*616 TAP_TAPCELL_ROW_0_65
*617 TAP_TAPCELL_ROW_0_66
*618 TAP_TAPCELL_ROW_0_67
*619 TAP_TAPCELL_ROW_10_86
*620 TAP_TAPCELL_ROW_10_87
*621 TAP_TAPCELL_ROW_11_88
*622 TAP_TAPCELL_ROW_11_89
*623 TAP_TAPCELL_ROW_12_90
*624 TAP_TAPCELL_ROW_12_91
*625 TAP_TAPCELL_ROW_13_92
*626 TAP_TAPCELL_ROW_13_93
*627 TAP_TAPCELL_ROW_14_94
*628 TAP_TAPCELL_ROW_14_95
*629 TAP_TAPCELL_ROW_15_96
*630 TAP_TAPCELL_ROW_15_97
*631 TAP_TAPCELL_ROW_16_98
*632 TAP_TAPCELL_ROW_16_99
*633 TAP_TAPCELL_ROW_17_100
*634 TAP_TAPCELL_ROW_17_101
*635 TAP_TAPCELL_ROW_18_102
*636 TAP_TAPCELL_ROW_18_103
*637 TAP_TAPCELL_ROW_19_104
*638 TAP_TAPCELL_ROW_19_105
*639 TAP_TAPCELL_ROW_1_68
*640 TAP_TAPCELL_ROW_1_69
*641 TAP_TAPCELL_ROW_20_106
*642 TAP_TAPCELL_ROW_20_107
*643 TAP_TAPCELL_ROW_21_108
*644 TAP_TAPCELL_ROW_21_109
*645 TAP_TAPCELL_ROW_22_110
*646 TAP_TAPCELL_ROW_22_111
*647 TAP_TAPCELL_ROW_23_112
*648 TAP_TAPCELL_ROW_23_113
*649 TAP_TAPCELL_ROW_24_114
*650 TAP_TAPCELL_ROW_24_115
*651 TAP_TAPCELL_ROW_25_116
*652 TAP_TAPCELL_ROW_25_117
*653 TAP_TAPCELL_ROW_26_118
*654 TAP_TAPCELL_ROW_26_119
*655 TAP_TAPCELL_ROW_27_120
*656 TAP_TAPCELL_ROW_27_121
*657 TAP_TAPCELL_ROW_28_122
*658 TAP_TAPCELL_ROW_28_123
*659 TAP_TAPCELL_ROW_29_124
*660 TAP_TAPCELL_ROW_29_125
*661 TAP_TAPCELL_ROW_2_70
*662 TAP_TAPCELL_ROW_2_71
*663 TAP_TAPCELL_ROW_30_126
*664 TAP_TAPCELL_ROW_30_127
*665 TAP_TAPCELL_ROW_31_128
*666 TAP_TAPCELL_ROW_31_129
*667 TAP_TAPCELL_ROW_31_130
*668 TAP_TAPCELL_ROW_31_131
*669 TAP_TAPCELL_ROW_3_72
*670 TAP_TAPCELL_ROW_3_73
*671 TAP_TAPCELL_ROW_4_74
*672 TAP_TAPCELL_ROW_4_75
*673 TAP_TAPCELL_ROW_5_76
*674 TAP_TAPCELL_ROW_5_77
*675 TAP_TAPCELL_ROW_6_78
*676 TAP_TAPCELL_ROW_6_79
*677 TAP_TAPCELL_ROW_7_80
*678 TAP_TAPCELL_ROW_7_81
*679 TAP_TAPCELL_ROW_8_82
*680 TAP_TAPCELL_ROW_8_83
*681 TAP_TAPCELL_ROW_9_84
*682 TAP_TAPCELL_ROW_9_85
*683 ZeroToFiveCounter_10
*684 ZeroToFiveCounter_11
*685 ZeroToFiveCounter_8
*686 ZeroToFiveCounter_9
*687 _120_
*688 _121_
*689 _122_
*690 _123_
*691 _124_
*692 _125_
*693 _126_
*694 _127_
*695 _128_
*696 _129_
*697 _130_
*698 _131_
*699 _132_
*700 _133_
*701 _134_
*702 _135_
*703 _136_
*704 _137_
*705 _138_
*706 _139_
*707 _140_
*708 _141_
*709 _142_
*710 _143_
*711 _144_
*712 _145_
*713 _146_
*714 _147_
*715 _148_
*716 _149_
*717 _150_
*718 _151_
*719 _152_
*720 _153_
*721 _154_
*722 _155_
*723 _156_
*724 _157_
*725 _158_
*726 _159_
*727 _160_
*728 _161_
*729 _162_
*730 _163_
*731 _164_
*732 _165_
*733 _166_
*734 _167_
*735 _168_
*736 _169_
*737 _170_
*738 _171_
*739 _172_
*740 _173_
*741 _174_
*742 _175_
*743 _176_
*744 _177_
*745 _178_
*746 _179_
*747 _180_
*748 _181_
*749 _182_
*750 _183_
*751 _184_
*752 _185_
*753 _186_
*754 _187_
*755 _188_
*756 _189_
*757 _190_
*758 _191_
*759 _192_
*760 _193_
*761 _194_
*762 _195_
*763 _196_
*764 _197_
*765 _198_
*766 _199_
*767 _200_
*768 _201_
*769 _202_
*770 _203_
*771 _204_
*772 _205_
*773 _206_
*774 _207_
*775 _208_
*776 _209_
*777 _210_
*778 _211_
*779 _212_
*780 _213_
*781 _214_
*782 _215_
*783 _216_
*784 _217_
*785 _218_
*786 _219_
*787 _220_
*788 _221_
*789 _222_
*790 _223_
*791 _224_
*792 _225_
*793 _226_
*794 _227_
*795 _228_
*796 _229_
*797 _230_
*798 _231_
*799 _232_
*800 _233_
*801 _234_
*802 _235_
*803 _236_
*804 _237_
*805 _238_
*806 _239_
*807 _240_
*808 _241_
*809 _242_
*810 _243_
*811 _244_
*812 _245_
*813 _246_
*814 _247_
*815 _248_
*816 _249_
*817 _250_
*818 _251_
*819 _252_
*820 _253_
*821 _254_
*822 _255_
*823 _256_
*824 _257_
*825 _258_
*826 _259_
*827 _260_
*828 _261_
*829 _262_
*830 _263_
*831 _264_
*832 _265_
*833 _266_
*834 _267_
*835 _268_
*836 _269_
*837 _270_
*838 _271_
*839 _272_
*840 _273_
*841 _274_
*842 _279_
*843 clkbuf_0_CLK100MHZ
*844 clkbuf_2_0__f_CLK100MHZ
*845 clkbuf_2_1__f_CLK100MHZ
*846 clkbuf_2_2__f_CLK100MHZ
*847 clkbuf_2_3__f_CLK100MHZ
*848 clkload0
*849 clkload1
*850 clkload2
*851 output1
*852 output2
*853 output3
*854 output4
*855 output5
*856 output6
*857 output7

*PORTS
AN[0] O
AN[1] O
AN[2] O
AN[3] O
BTNC I
CLK100MHZ I
seg[0] O
seg[1] O
seg[2] O
seg[3] O
seg[4] O
seg[5] O
seg[6] O

*D_NET *1 0.000963245
*CONN
*P AN[0] O
*I *685:LO O *D sky130_fd_sc_hd__conb_1
*CAP
1 AN[0] 0.000418401
2 *685:LO 0.000418401
3 AN[0] seg[6] 0.000126444
4 AN[0] *95:8 0
*RES
1 *685:LO AN[0] 47.4664 
*END

*D_NET *2 0.0010207
*CONN
*P AN[1] O
*I *686:HI O *D sky130_fd_sc_hd__conb_1
*CAP
1 AN[1] 0.000482955
2 *686:HI 0.000482955
3 AN[1] *143:98 5.47927e-05
*RES
1 *686:HI AN[1] 47.57 
*END

*D_NET *3 0.00086601
*CONN
*P AN[2] O
*I *683:HI O *D sky130_fd_sc_hd__conb_1
*CAP
1 AN[2] 0.000426033
2 *683:HI 0.000426033
3 AN[2] *176:12 1.39431e-05
*RES
1 *683:HI AN[2] 46.6171 
*END

*D_NET *4 0.00086601
*CONN
*P AN[3] O
*I *684:HI O *D sky130_fd_sc_hd__conb_1
*CAP
1 AN[3] 0.000426033
2 *684:HI 0.000426033
3 AN[3] *176:12 1.39431e-05
*RES
1 *684:HI AN[3] 46.6171 
*END

*D_NET *5 0.0178312
*CONN
*P BTNC I
*I *781:A I *D sky130_fd_sc_hd__buf_4
*I *793:A I *D sky130_fd_sc_hd__buf_4
*CAP
1 BTNC 0.00428703
2 *781:A 0.000215969
3 *793:A 0
4 *5:19 0.000419731
5 *5:13 0.00492273
6 *781:A *128:8 0.000344591
7 *5:13 *690:A 0
8 *5:13 *693:C 0.000100813
9 *5:13 *706:B 0.000237958
10 *5:13 *819:RESET_B 2.70012e-05
11 *5:13 *64:22 0
12 *5:13 *119:23 0.000212615
13 *5:13 *128:105 0.000106745
14 *5:13 *130:97 0.000888788
15 *5:13 *134:31 0.000793701
16 *5:13 *142:170 2.62569e-05
17 *5:13 *152:67 0.000283276
18 *5:13 *152:77 0.00208965
19 *5:13 *159:31 0
20 *5:13 *161:21 6.68498e-05
21 *5:13 *162:12 9.62504e-05
22 *5:13 *165:48 1.80133e-05
23 *5:13 *168:52 0.000651967
24 *5:13 *168:60 0.000160348
25 *5:19 *119:23 0.00108359
26 *5:19 *130:78 5.73309e-05
27 *5:19 *130:97 0.000424338
28 *5:19 *141:79 0.000132486
29 *5:19 *142:170 0.00012758
30 *5:19 *144:66 5.56356e-05
*RES
1 BTNC *5:13 35.1061 
2 *5:13 *5:19 30.2043 
3 *5:19 *793:A 23 
4 *5:13 *781:A 41.9564 
*END

*D_NET *6 0.0118932
*CONN
*P CLK100MHZ I
*I *843:A I *D sky130_fd_sc_hd__clkbuf_16
*CAP
1 CLK100MHZ 0.00409048
2 *843:A 0
3 *6:25 0.00409048
4 *6:25 *18:20 2.67324e-05
5 *6:25 *45:32 0
6 *6:25 *77:124 8.9646e-05
7 *6:25 *95:53 6.77227e-05
8 *6:25 *113:24 0.0013229
9 *6:25 *114:26 0.00208561
10 *6:25 *118:22 6.84804e-05
11 *6:25 *123:30 1.79136e-05
12 *6:25 *145:72 1.05658e-05
13 *6:25 *148:58 2.26406e-05
14 *6:25 *162:41 0
*RES
1 CLK100MHZ *6:25 35.592 
2 *6:25 *843:A 38 
*END

*D_NET *9 0.000805492
*CONN
*P seg[0] O
*I *851:X O *D sky130_fd_sc_hd__buf_1
*CAP
1 seg[0] 0.000402746
2 *851:X 0.000402746
*RES
1 *851:X seg[0] 49.1918 
*END

*D_NET *10 0.00076091
*CONN
*P seg[1] O
*I *852:X O *D sky130_fd_sc_hd__buf_1
*CAP
1 seg[1] 0.000368104
2 *852:X 0.000368104
3 seg[1] *169:69 2.47015e-05
*RES
1 *852:X seg[1] 47.0789 
*END

*D_NET *11 0.00102759
*CONN
*P seg[2] O
*I *853:X O *D sky130_fd_sc_hd__buf_1
*CAP
1 seg[2] 0.000450193
2 *853:X 0.000450193
3 seg[2] *64:22 0
4 seg[2] *147:10 0.000127209
*RES
1 *853:X seg[2] 48.4875 
*END

*D_NET *12 0.000726163
*CONN
*P seg[3] O
*I *854:X O *D sky130_fd_sc_hd__buf_1
*CAP
1 seg[3] 0.000115036
2 *854:X 0.000217041
3 *12:10 0.000332077
4 *12:10 *39:10 6.2008e-05
5 *12:10 *64:12 0
*RES
1 *854:X *12:10 42.2568 
2 *12:10 seg[3] 8.32853 
*END

*D_NET *13 0.00103153
*CONN
*P seg[4] O
*I *855:X O *D sky130_fd_sc_hd__buf_1
*CAP
1 seg[4] 0.000437271
2 *855:X 0.000437271
3 seg[4] *39:10 0
4 seg[4] *64:12 0.000156987
*RES
1 *855:X seg[4] 48.8397 
*END

*D_NET *14 0.000802932
*CONN
*P seg[5] O
*I *856:X O *D sky130_fd_sc_hd__buf_1
*CAP
1 seg[5] 0.00037779
2 *856:X 0.00037779
3 seg[5] *63:18 2.26497e-05
4 seg[5] *64:12 2.47015e-05
*RES
1 *856:X seg[5] 47.0789 
*END

*D_NET *15 0.000990684
*CONN
*P seg[6] O
*I *857:X O *D sky130_fd_sc_hd__buf_1
*CAP
1 seg[6] 0.00043212
2 *857:X 0.00043212
3 seg[6] *95:8 0
4 AN[0] seg[6] 0.000126444
*RES
1 *857:X seg[6] 48.831 
*END

*D_NET *16 0.00182857
*CONN
*I *817:D I *D sky130_fd_sc_hd__dfrtp_2
*I *732:Y O *D sky130_fd_sc_hd__inv_2
*CAP
1 *817:D 0
2 *732:Y 0.000583437
3 *16:10 0.000583437
4 *16:10 *830:RESET_B 3.69131e-05
5 *16:10 *75:44 3.7218e-05
6 *16:10 *77:10 4.80465e-05
7 *16:10 *77:22 2.46885e-05
8 *16:10 *82:77 3.92407e-05
9 *16:10 *83:16 2.40479e-05
10 *16:10 *86:28 0.000314977
11 *16:10 *132:68 5.58873e-06
12 *16:10 *142:111 0
13 *16:10 *150:24 1.34484e-05
14 *16:10 *165:42 0.000117526
15 *16:10 *173:12 0
*RES
1 *732:Y *16:10 49.1029 
2 *16:10 *817:D 38 
*END

*D_NET *17 0.00122506
*CONN
*I *827:D I *D sky130_fd_sc_hd__dfrtp_1
*I *761:Y O *D sky130_fd_sc_hd__a21boi_1
*CAP
1 *827:D 0.000193639
2 *761:Y 0.000211389
3 *17:10 0.000405028
4 *827:D *827:RESET_B 4.58635e-05
5 *827:D *96:8 0.000157002
6 *17:10 *110:179 9.65021e-05
7 *17:10 *126:61 3.21668e-05
8 *17:10 *128:34 2.1819e-05
9 *17:10 *146:45 6.16484e-05
*RES
1 *761:Y *17:10 41.48 
2 *17:10 *827:D 41.48 
*END

*D_NET *18 0.0163883
*CONN
*I *828:D I *D sky130_fd_sc_hd__dfrtp_1
*I *177:DIODE I *D sky130_fd_sc_hd__diode_2
*I *765:X O *D sky130_fd_sc_hd__buf_1
*CAP
1 *828:D 0.000328248
2 *177:DIODE 0
3 *765:X 0
4 *18:20 0.00319361
5 *18:12 0.00451966
6 *18:6 0.0016543
7 *828:D *828:CLK 0.000175903
8 *828:D *22:12 4.92011e-05
9 *828:D *121:10 0.000112864
10 *18:12 *823:CLK 4.92308e-05
11 *18:12 *23:10 0.000275298
12 *18:12 *27:16 0.00200414
13 *18:12 *36:18 0.000441029
14 *18:12 *89:8 7.31905e-05
15 *18:12 *120:20 2.8133e-05
16 *18:12 *127:20 0.000684359
17 *18:12 *129:66 0.00107483
18 *18:12 *131:10 0.00040949
19 *18:12 *137:66 0.000122663
20 *18:12 *137:70 5.16366e-05
21 *18:12 *157:39 0.000190678
22 *18:12 *166:22 0
23 *18:20 *22:12 5.74556e-05
24 *18:20 *103:28 0.000715447
25 *18:20 *118:22 0
26 *18:20 *121:10 0.000123721
27 *18:20 *149:24 2.64479e-05
28 *6:25 *18:20 2.67324e-05
*RES
1 *765:X *18:6 38 
2 *18:6 *18:12 46.8661 
3 *18:12 *18:20 23.1952 
4 *18:20 *177:DIODE 38 
5 *18:20 *828:D 43.6757 
*END

*D_NET *19 0.00450459
*CONN
*I *829:D I *D sky130_fd_sc_hd__dfrtp_2
*I *766:Y O *D sky130_fd_sc_hd__xnor2_1
*CAP
1 *829:D 0
2 *766:Y 4.60886e-05
3 *19:12 0.0012048
4 *19:8 0.00125089
5 *19:8 *135:60 5.56279e-05
6 *19:12 *755:B 2.33476e-05
7 *19:12 *798:A 0.000287863
8 *19:12 *110:85 0
9 *19:12 *130:107 8.4047e-05
10 *19:12 *132:56 6.61938e-05
11 *19:12 *134:43 9.26434e-05
12 *19:12 *134:54 0.000351045
13 *19:12 *135:22 0.000536284
14 *19:12 *147:26 9.97087e-05
15 *19:12 *148:20 0.000253773
16 *19:12 *153:12 0.000152282
17 *19:12 *168:38 0
*RES
1 *766:Y *19:8 38.6214 
2 *19:8 *19:12 41.9079 
3 *19:12 *829:D 23 
*END

*D_NET *20 0.0110201
*CONN
*I *830:D I *D sky130_fd_sc_hd__dfrtp_1
*I *769:X O *D sky130_fd_sc_hd__o21ba_1
*CAP
1 *830:D 0.00158471
2 *769:X 0.000788265
3 *20:12 0.00241429
4 *20:8 0.00161784
5 *830:D *123:57 0.00148763
6 *830:D *168:60 2.17486e-05
7 *830:D *168:74 0.000176084
8 *20:8 *145:49 0.000935978
9 *20:12 *840:RESET_B 8.36198e-05
10 *20:12 *61:10 0.000562904
11 *20:12 *140:10 0.000554666
12 *20:12 *159:21 0.000792318
*RES
1 *769:X *20:8 48.6264 
2 *20:8 *20:12 38.7386 
3 *20:12 *830:D 44.0146 
*END

*D_NET *21 0.00626201
*CONN
*I *831:D I *D sky130_fd_sc_hd__dfrtp_1
*I *771:X O *D sky130_fd_sc_hd__o2bb2a_1
*CAP
1 *831:D 0
2 *771:X 8.40647e-05
3 *21:20 0.00165692
4 *21:8 0.00174099
5 *21:8 *771:B2 9.58714e-05
6 *21:20 *82:58 9.76849e-05
7 *21:20 *94:10 8.4047e-05
8 *21:20 *95:37 0.000778228
9 *21:20 *97:14 6.91284e-05
10 *21:20 *110:122 0.000329268
11 *21:20 *123:30 8.78829e-05
12 *21:20 *135:62 0.0008366
13 *21:20 *141:64 0.00030964
14 *21:20 *149:24 0
15 *21:20 *165:21 3.04382e-05
16 *21:20 *167:30 6.12447e-05
*RES
1 *771:X *21:8 39.0979 
2 *21:8 *21:20 47.2948 
3 *21:20 *831:D 23 
*END

*D_NET *22 0.0113376
*CONN
*I *832:D I *D sky130_fd_sc_hd__dfrtp_1
*I *773:Y O *D sky130_fd_sc_hd__nor2_1
*CAP
1 *832:D 0.000534855
2 *773:Y 0
3 *22:12 0.00187149
4 *22:10 0.00186861
5 *22:6 0.00053198
6 *832:D *739:A_N 0.000127883
7 *832:D *797:A 0.000103647
8 *832:D *832:CLK 9.94357e-05
9 *832:D *130:28 4.67488e-05
10 *22:10 *71:22 7.18129e-05
11 *22:10 *83:16 0.000943483
12 *22:10 *121:10 0.000475649
13 *22:10 *134:25 0.000107909
14 *22:12 *71:22 0.000117604
15 *22:12 *82:119 2.24973e-05
16 *22:12 *82:141 6.59613e-05
17 *22:12 *102:12 0.00177958
18 *22:12 *103:28 0.000260715
19 *22:12 *121:10 0.000285887
20 *22:12 *128:18 0.00167472
21 *22:12 *128:22 0.000240435
22 *22:12 *130:14 0
23 *22:12 *130:18 0
24 *828:D *22:12 4.92011e-05
25 *18:20 *22:12 5.74556e-05
*RES
1 *773:Y *22:6 38 
2 *22:6 *22:10 15.8568 
3 *22:10 *22:12 39.9889 
4 *22:12 *832:D 47.8393 
*END

*D_NET *23 0.00256613
*CONN
*I *833:D I *D sky130_fd_sc_hd__dfrtp_2
*I *774:X O *D sky130_fd_sc_hd__xor2_1
*CAP
1 *833:D 0
2 *774:X 0
3 *23:10 0.000509157
4 *23:6 0.000509157
5 *23:10 *774:B 4.30457e-05
6 *23:10 *131:10 0.000407289
7 *23:10 *157:39 0.000822179
8 *18:12 *23:10 0.000275298
*RES
1 *774:X *23:6 38 
2 *23:6 *23:10 28.8786 
3 *23:10 *833:D 23 
*END

*D_NET *24 0.0071472
*CONN
*I *834:D I *D sky130_fd_sc_hd__dfrtp_1
*I *777:Y O *D sky130_fd_sc_hd__nor2_1
*CAP
1 *834:D 2.84054e-05
2 *777:Y 0
3 *24:16 0.00145036
4 *24:6 0.00142195
5 *834:D *128:115 6.17437e-06
6 *834:D *153:27 1.21972e-05
7 *834:D *164:104 2.93845e-05
8 *24:16 *820:RESET_B 0.00050633
9 *24:16 *43:8 0.000500482
10 *24:16 *43:38 0.000118665
11 *24:16 *62:8 7.22406e-05
12 *24:16 *91:30 0
13 *24:16 *116:53 9.48635e-05
14 *24:16 *116:59 2.45159e-05
15 *24:16 *126:16 0.00127852
16 *24:16 *126:26 0.000794383
17 *24:16 *128:115 0.000155087
18 *24:16 *136:32 0
19 *24:16 *140:51 1.76335e-05
20 *24:16 *147:45 0
21 *24:16 *156:71 0
22 *24:16 *158:37 1.67417e-05
23 *24:16 *158:43 0.00059692
24 *24:16 *163:18 2.23486e-05
*RES
1 *777:Y *24:6 38 
2 *24:6 *24:16 37.1614 
3 *24:16 *834:D 38.6214 
*END

*D_NET *25 0.00157355
*CONN
*I *835:D I *D sky130_fd_sc_hd__dfrtp_2
*I *778:X O *D sky130_fd_sc_hd__xor2_1
*CAP
1 *835:D 0
2 *778:X 0.000383909
3 *25:10 0.000383909
4 *25:10 *38:18 0.000603041
5 *25:10 *66:8 0
6 *25:10 *92:49 7.28571e-05
7 *25:10 *130:28 0
8 *25:10 *169:16 9.91548e-05
9 *25:10 *175:12 3.06803e-05
*RES
1 *778:X *25:10 47.3421 
2 *25:10 *835:D 38 
*END

*D_NET *26 0.00644516
*CONN
*I *836:D I *D sky130_fd_sc_hd__dfrtp_1
*I *780:X O *D sky130_fd_sc_hd__o2bb2a_1
*CAP
1 *836:D 0
2 *780:X 0.000122338
3 *26:18 0.00132102
4 *26:8 0.00144336
5 *26:8 *143:61 0.000136738
6 *26:18 *762:B1 0.000248034
7 *26:18 *836:CLK 0.000216681
8 *26:18 *836:RESET_B 2.62973e-05
9 *26:18 *70:16 0.000898484
10 *26:18 *84:10 0.000201334
11 *26:18 *118:12 2.47015e-05
12 *26:18 *129:87 0.000385021
13 *26:18 *133:82 4.45839e-05
14 *26:18 *149:8 0.000170057
15 *26:18 *149:24 9.18156e-06
16 *26:18 *149:71 1.69668e-05
17 *26:18 *150:35 1.30142e-05
18 *26:18 *155:8 6.17437e-06
19 *26:18 *161:52 0.000464869
20 *26:18 *166:47 0.000138718
21 *26:18 *168:74 8.11021e-05
22 *26:18 *172:12 0.000340004
23 *26:18 *172:18 0.000136486
*RES
1 *780:X *26:8 39.5743 
2 *26:8 *26:18 47.9771 
3 *26:18 *836:D 23 
*END

*D_NET *27 0.00761299
*CONN
*I *818:D I *D sky130_fd_sc_hd__dfrtp_2
*I *736:X O *D sky130_fd_sc_hd__clkbuf_1
*CAP
1 *818:D 0
2 *736:X 0.000319464
3 *27:16 0.00115618
4 *27:8 0.00147565
5 *27:8 *815:RESET_B 0.000218033
6 *27:8 *143:18 5.03573e-05
7 *27:8 *143:90 9.03364e-06
8 *27:16 *127:12 0
9 *27:16 *127:20 0.000233417
10 *27:16 *137:64 6.84739e-05
11 *27:16 *137:66 5.00353e-05
12 *27:16 *150:10 0.00193299
13 *27:16 *150:35 9.52125e-05
14 *18:12 *27:16 0.00200414
*RES
1 *736:X *27:8 42.4329 
2 *27:8 *27:16 48.6607 
3 *27:16 *818:D 23 
*END

*D_NET *28 0.0088697
*CONN
*I *837:D I *D sky130_fd_sc_hd__dfrtp_1
*I *712:Y O *D sky130_fd_sc_hd__nor2_1
*CAP
1 *837:D 0.000945806
2 *712:Y 0.000382493
3 *28:12 0.00166556
4 *28:8 0.00110225
5 *837:D *98:12 2.45549e-06
6 *28:8 *33:16 0.000479645
7 *28:12 *29:20 0
8 *28:12 *76:12 0.00153172
9 *28:12 *106:26 0.000308652
10 *28:12 *106:50 0.000498769
11 *28:12 *142:58 0.000737746
12 *28:12 *143:34 1.32832e-05
13 *28:12 *164:79 0.000657338
14 *28:12 *164:85 0.000252325
15 *28:12 *175:8 0.000291656
*RES
1 *712:Y *28:8 43.3857 
2 *28:8 *28:12 45.7814 
3 *28:12 *837:D 35.0557 
*END

*D_NET *29 0.0168423
*CONN
*I *838:D I *D sky130_fd_sc_hd__dfrtp_1
*I *714:X O *D sky130_fd_sc_hd__o21ba_1
*CAP
1 *838:D 0.000260001
2 *714:X 0.00204489
3 *29:20 0.00098647
4 *29:18 0.000726469
5 *29:16 0.000897392
6 *29:6 0.00294228
7 *838:D *33:16 0
8 *838:D *137:35 4.03039e-05
9 *29:6 *715:A 0.00043107
10 *29:6 *754:B 5.3304e-05
11 *29:6 *830:CLK 9.79925e-05
12 *29:6 *830:RESET_B 0.000104614
13 *29:6 *168:60 0.000991859
14 *29:6 *168:74 0.000181048
15 *29:16 *91:14 0.000104066
16 *29:16 *133:82 0.000354146
17 *29:16 *168:82 0.000119218
18 *29:20 *33:18 0.000241033
19 *29:20 *47:14 0.00300798
20 *29:20 *76:12 0
21 *29:20 *131:20 0
22 *29:20 *131:26 0.00325815
23 *29:20 *142:58 0
24 *28:12 *29:20 0
*RES
1 *714:X *29:6 49.825 
2 *29:6 *29:16 41.9729 
3 *29:16 *29:18 15 
4 *29:18 *29:20 47.3321 
5 *29:20 *838:D 41.9564 
*END

*D_NET *30 0.00186358
*CONN
*I *839:D I *D sky130_fd_sc_hd__dfrtp_1
*I *716:X O *D sky130_fd_sc_hd__o2bb2a_1
*CAP
1 *839:D 0.000564737
2 *716:X 0.000109378
3 *30:8 0.000674115
4 *839:D *839:CLK 7.43624e-05
5 *839:D *59:10 3.17516e-05
6 *839:D *159:8 6.17437e-06
7 *30:8 *826:RESET_B 2.84912e-05
8 *30:8 *49:10 0.000107359
9 *30:8 *91:54 5.04995e-05
10 *30:8 *128:54 0.000216712
*RES
1 *716:X *30:8 41.6664 
2 *30:8 *839:D 46.7207 
*END

*D_NET *31 0.0130728
*CONN
*I *840:D I *D sky130_fd_sc_hd__dfrtp_1
*I *720:X O *D sky130_fd_sc_hd__buf_1
*CAP
1 *840:D 0
2 *720:X 0.000141001
3 *31:22 0.00178679
4 *31:14 0.00313177
5 *31:8 0.00148598
6 *31:8 *107:10 0.000184293
7 *31:14 *725:D1 0.000401184
8 *31:14 *106:14 0.00141269
9 *31:14 *106:44 0.000743751
10 *31:14 *133:90 2.78373e-05
11 *31:14 *142:41 0
12 *31:14 *142:111 1.03972e-05
13 *31:14 *143:34 0.000162254
14 *31:14 *144:87 0.00040944
15 *31:14 *164:79 2.55866e-05
16 *31:14 *164:85 0.00137526
17 *31:22 *798:A 0.000137651
18 *31:22 *842:A 0.000276834
19 *31:22 *55:8 5.91889e-05
20 *31:22 *128:115 9.64943e-05
21 *31:22 *128:123 0.000270671
22 *31:22 *129:141 0.000101883
23 *31:22 *133:26 0.000615438
24 *31:22 *145:99 0.000216411
*RES
1 *720:X *31:8 40.0507 
2 *31:8 *31:14 42.1121 
3 *31:14 *31:22 47.5836 
4 *31:22 *840:D 23 
*END

*D_NET *32 0.00777071
*CONN
*I *841:D I *D sky130_fd_sc_hd__dfrtp_2
*I *721:Y O *D sky130_fd_sc_hd__xnor2_1
*CAP
1 *841:D 0
2 *721:Y 0.00172561
3 *32:14 0.000499782
4 *32:6 0.00222539
5 *32:6 *767:B 0.000339129
6 *32:6 *81:47 6.37711e-05
7 *32:6 *110:109 0.000719262
8 *32:6 *116:74 0.0004935
9 *32:6 *168:38 9.90285e-05
10 *32:14 *702:A_N 0.000260026
11 *32:14 *841:RESET_B 2.64616e-05
12 *32:14 *60:10 6.69611e-05
13 *32:14 *77:49 0.00037412
14 *32:14 *95:75 0.00082903
15 *32:14 *130:141 1.92544e-05
16 *32:14 *132:93 2.93845e-05
*RES
1 *721:Y *32:6 49.3486 
2 *32:6 *32:14 43.0914 
3 *32:14 *841:D 23 
*END

*D_NET *33 0.0192111
*CONN
*I *819:D I *D sky130_fd_sc_hd__dfrtp_2
*I *737:Y O *D sky130_fd_sc_hd__xnor2_1
*CAP
1 *819:D 0
2 *737:Y 0.000596433
3 *33:26 0.000745626
4 *33:18 0.00187141
5 *33:16 0.00161918
6 *33:10 0.00108983
7 *33:10 *737:B 2.50118e-05
8 *33:10 *36:10 2.81448e-05
9 *33:10 *82:20 0.000359635
10 *33:10 *95:53 0.00031794
11 *33:10 *166:97 0
12 *33:16 *94:14 0.000533982
13 *33:16 *131:16 5.46171e-05
14 *33:18 *131:20 0
15 *33:18 *131:26 0.00469598
16 *33:18 *168:84 0.0040011
17 *33:26 *749:B 0.00119026
18 *33:26 *779:A 7.51776e-05
19 *33:26 *779:C 9.71667e-05
20 *33:26 *127:6 0.00118896
21 *838:D *33:16 0
22 *28:8 *33:16 0.000479645
23 *29:20 *33:18 0.000241033
*RES
1 *737:Y *33:10 48.2329 
2 *33:10 *33:16 41.5793 
3 *33:16 *33:18 67.7564 
4 *33:18 *33:26 37.2264 
5 *33:26 *819:D 23 
*END

*D_NET *34 0.00661699
*CONN
*I *820:D I *D sky130_fd_sc_hd__dfrtp_1
*I *740:X O *D sky130_fd_sc_hd__clkbuf_1
*CAP
1 *820:D 0
2 *740:X 0.00166373
3 *34:14 0.000359659
4 *34:6 0.00202339
5 *34:6 *48:6 2.03764e-06
6 *34:6 *71:22 2.45549e-06
7 *34:6 *81:26 0.000644029
8 *34:6 *173:25 0.000625474
9 *34:14 *818:RESET_B 0.000638009
10 *34:14 *837:RESET_B 5.3304e-05
11 *34:14 *89:20 3.11878e-05
12 *34:14 *133:10 2.19562e-05
13 *34:14 *142:136 0.000137179
14 *34:14 *166:47 2.93747e-05
15 *34:14 *173:25 0.000385209
*RES
1 *740:X *34:6 44.5843 
2 *34:6 *34:14 39.57 
3 *34:14 *820:D 23 
*END

*D_NET *35 0.00215724
*CONN
*I *821:D I *D sky130_fd_sc_hd__dfrtp_2
*I *743:Y O *D sky130_fd_sc_hd__nor2_1
*CAP
1 *821:D 0
2 *743:Y 0.000884057
3 *35:6 0.000884057
4 *35:6 *104:22 7.51453e-06
5 *35:6 *105:14 5.82853e-05
6 *35:6 *138:18 0.000323326
*RES
1 *743:Y *35:6 39.3436 
2 *35:6 *821:D 23 
*END

*D_NET *36 0.00361021
*CONN
*I *822:D I *D sky130_fd_sc_hd__dfrtp_2
*I *746:Y O *D sky130_fd_sc_hd__nor2_1
*CAP
1 *822:D 0
2 *746:Y 0.000456884
3 *36:18 0.000242329
4 *36:10 0.000699214
5 *36:10 *737:B 0.000117069
6 *36:10 *82:20 0.000164523
7 *36:10 *89:14 5.3304e-05
8 *36:10 *107:18 3.22051e-05
9 *36:10 *175:12 0.000973712
10 *36:18 *712:B 0.00015795
11 *36:18 *823:CLK 0.000121268
12 *36:18 *66:14 5.50049e-05
13 *36:18 *89:8 3.47781e-05
14 *36:18 *137:70 3.41998e-06
15 *36:18 *165:6 2.93747e-05
16 *18:12 *36:18 0.000441029
17 *33:10 *36:10 2.81448e-05
*RES
1 *746:Y *36:10 36.1743 
2 *36:10 *36:18 36.7529 
3 *36:18 *822:D 23 
*END

*D_NET *37 0.00443114
*CONN
*I *823:D I *D sky130_fd_sc_hd__dfrtp_4
*I *747:X O *D sky130_fd_sc_hd__xor2_1
*CAP
1 *823:D 0
2 *747:X 0.000498866
3 *37:10 0.000498866
4 *37:10 *774:A 0.000132671
5 *37:10 *787:A 0.000106808
6 *37:10 *823:RESET_B 0.000505107
7 *37:10 *45:18 3.22051e-05
8 *37:10 *106:58 0.0023206
9 *37:10 *120:14 7.53303e-06
10 *37:10 *130:28 9.57583e-05
11 *37:10 *166:88 0.000232719
*RES
1 *747:X *37:10 49.9907 
2 *37:10 *823:D 23 
*END

*D_NET *38 0.0134867
*CONN
*I *824:D I *D sky130_fd_sc_hd__dfrtp_1
*I *753:X O *D sky130_fd_sc_hd__buf_1
*CAP
1 *824:D 0
2 *753:X 4.0764e-05
3 *38:30 0.000560302
4 *38:18 0.0037459
5 *38:8 0.00322636
6 *38:8 *138:18 3.26241e-05
7 *38:18 *833:RESET_B 0
8 *38:18 *50:24 0.000119439
9 *38:18 *59:10 0.000309892
10 *38:18 *60:24 0.00199979
11 *38:18 *92:49 5.58564e-05
12 *38:18 *112:34 3.08153e-05
13 *38:18 *138:8 5.04424e-05
14 *38:18 *138:10 0.00012758
15 *38:18 *138:12 0.000194559
16 *38:18 *138:18 0.000179775
17 *38:18 *138:63 6.03228e-05
18 *38:18 *152:50 0
19 *38:18 *156:45 0
20 *38:18 *159:10 0.000166303
21 *38:18 *159:21 0.00024508
22 *38:30 *824:CLK 4.96717e-05
23 *38:30 *43:20 0.000346791
24 *38:30 *77:30 0.000254852
25 *38:30 *77:37 6.72912e-05
26 *38:30 *83:16 0
27 *38:30 *86:14 6.25091e-05
28 *38:30 *132:81 0.000130437
29 *38:30 *140:30 4.6595e-05
30 *38:30 *151:12 1.00765e-05
31 *38:30 *159:31 0.000122286
32 *38:30 *166:63 0.000647306
33 *25:10 *38:18 0.000603041
*RES
1 *753:X *38:8 38.6214 
2 *38:8 *38:18 45.7156 
3 *38:18 *38:30 43.8753 
4 *38:30 *824:D 23 
*END

*D_NET *39 0.0144327
*CONN
*I *825:D I *D sky130_fd_sc_hd__dfrtp_4
*I *757:X O *D sky130_fd_sc_hd__buf_1
*CAP
1 *825:D 0
2 *757:X 0.00155665
3 *39:14 0.000798211
4 *39:10 0.00433737
5 *39:8 0.00353916
6 *39:6 0.00155665
7 *39:6 *176:12 0.00170607
8 *39:10 *63:18 0
9 *39:10 *64:12 0
10 *39:10 *64:22 0.00054224
11 *39:10 *133:63 0
12 *39:10 *134:80 0
13 *39:10 *169:69 0
14 *39:10 *171:12 0
15 *39:14 *825:RESET_B 0.00012308
16 *39:14 *161:40 3.44383e-05
17 *39:14 *168:12 0.00017681
18 seg[4] *39:10 0
19 *12:10 *39:10 6.2008e-05
*RES
1 *757:X *39:6 47.9193 
2 *39:6 *39:8 15 
3 *39:8 *39:10 78.3207 
4 *39:10 *39:14 30.3907 
5 *39:14 *825:D 23 
*END

*D_NET *40 0.00696135
*CONN
*I *826:D I *D sky130_fd_sc_hd__dfrtp_2
*I *758:Y O *D sky130_fd_sc_hd__xnor2_1
*CAP
1 *826:D 0
2 *758:Y 4.15373e-05
3 *40:14 0.00120897
4 *40:8 0.00125051
5 *40:8 *169:16 2.64616e-05
6 *40:14 *826:CLK 0.000254922
7 *40:14 *833:RESET_B 0
8 *40:14 *104:22 0.000708986
9 *40:14 *105:14 0.000992623
10 *40:14 *116:59 0.000493816
11 *40:14 *126:61 0.000183713
12 *40:14 *130:55 0.00110952
13 *40:14 *138:65 0.000547027
14 *40:14 *138:77 0.000143259
*RES
1 *758:Y *40:8 38.6214 
2 *40:8 *40:14 47.3971 
3 *40:14 *826:D 23 
*END

*D_NET *41 0.00286158
*CONN
*I *813:RESET_B I *D sky130_fd_sc_hd__dfrtp_4
*I *783:Y O *D sky130_fd_sc_hd__inv_2
*CAP
1 *813:RESET_B 0.000390632
2 *783:Y 0.000351113
3 *41:10 0.000741745
4 *813:RESET_B *50:24 7.33563e-06
5 *813:RESET_B *50:28 4.77883e-05
6 *813:RESET_B *90:33 1.96101e-05
7 *813:RESET_B *118:22 0
8 *813:RESET_B *151:12 9.29484e-05
9 *813:RESET_B *156:45 5.71933e-05
10 *41:10 *49:6 0.00018536
11 *41:10 *136:14 0.000349684
12 *41:10 *136:32 0.00013449
13 *41:10 *151:12 0.000483675
*RES
1 *783:Y *41:10 46.7104 
2 *41:10 *813:RESET_B 33.042 
*END

*D_NET *42 0.00551357
*CONN
*I *814:RESET_B I *D sky130_fd_sc_hd__dfrtp_4
*I *784:Y O *D sky130_fd_sc_hd__inv_2
*CAP
1 *814:RESET_B 0.000267248
2 *784:Y 0.000698046
3 *42:6 0.000965294
4 *814:RESET_B *48:6 0.00021591
5 *814:RESET_B *127:20 9.19022e-06
6 *814:RESET_B *142:8 0.000308414
7 *814:RESET_B *155:14 0.000329419
8 *814:RESET_B *173:25 0.000111148
9 *42:6 *784:A 0.00123846
10 *42:6 *129:70 0.000257636
11 *42:6 *129:102 5.56356e-05
12 *42:6 *142:14 0.00101506
13 *42:6 *142:130 4.21048e-05
*RES
1 *784:Y *42:6 40.7729 
2 *42:6 *814:RESET_B 37.1775 
*END

*D_NET *43 0.0149983
*CONN
*I *815:RESET_B I *D sky130_fd_sc_hd__dfrtp_4
*I *785:Y O *D sky130_fd_sc_hd__inv_2
*CAP
1 *815:RESET_B 6.84219e-05
2 *785:Y 0.000307244
3 *43:44 0.00174539
4 *43:38 0.00229097
5 *43:20 0.00169792
6 *43:14 0.00144425
7 *43:8 0.000667574
8 *815:RESET_B *143:18 0.000118518
9 *43:8 *91:30 0
10 *43:8 *140:51 6.07611e-06
11 *43:8 *147:45 0
12 *43:14 *135:6 0.0004335
13 *43:20 *50:10 0.000481164
14 *43:20 *55:22 0.000137368
15 *43:20 *90:25 0.00139109
16 *43:20 *144:66 8.80385e-05
17 *43:20 *151:12 7.45545e-05
18 *43:20 *153:64 4.15283e-06
19 *43:20 *159:31 8.4047e-05
20 *43:20 *166:63 0.000373816
21 *43:38 *116:59 0
22 *43:38 *126:26 6.48142e-05
23 *43:38 *136:14 0.000334096
24 *43:44 *87:12 0.000762649
25 *43:44 *132:125 0.00020239
26 *43:44 *141:14 1.87138e-05
27 *43:44 *141:24 9.6788e-06
28 *43:44 *141:37 7.32852e-07
29 *43:44 *141:47 6.29608e-05
30 *43:44 *145:49 5.11857e-05
31 *43:44 *149:51 0.00034601
32 *43:44 *155:26 0.000132158
33 *43:44 *158:16 0.000414868
34 *24:16 *43:8 0.000500482
35 *24:16 *43:38 0.000118665
36 *27:8 *815:RESET_B 0.000218033
37 *38:30 *43:20 0.000346791
*RES
1 *785:Y *43:8 44.8357 
2 *43:8 *43:14 34.9093 
3 *43:14 *43:20 42.115 
4 *43:20 *43:38 41.2686 
5 *43:38 *43:44 42.26 
6 *43:44 *815:RESET_B 17.4546 
*END

*D_NET *44 0.00449999
*CONN
*I *816:RESET_B I *D sky130_fd_sc_hd__dfrtp_4
*I *786:Y O *D sky130_fd_sc_hd__inv_2
*CAP
1 *816:RESET_B 0.000340602
2 *786:Y 0.000826592
3 *44:8 0.00116719
4 *816:RESET_B *141:79 0.00035917
5 *816:RESET_B *141:92 0.000356625
6 *816:RESET_B *142:170 0.000537022
7 *816:RESET_B *161:21 9.27814e-05
8 *44:8 *135:6 0.000718572
9 *44:8 *172:26 0.000101436
*RES
1 *786:Y *44:8 48.6264 
2 *44:8 *816:RESET_B 25.005 
*END

*D_NET *45 0.0141293
*CONN
*I *817:RESET_B I *D sky130_fd_sc_hd__dfrtp_2
*I *787:Y O *D sky130_fd_sc_hd__inv_2
*CAP
1 *817:RESET_B 0.000746239
2 *787:Y 0.000397902
3 *45:32 0.00421151
4 *45:18 0.00386317
5 *817:RESET_B *82:77 0
6 *817:RESET_B *142:20 0.000110922
7 *817:RESET_B *142:111 0.000204975
8 *817:RESET_B *143:55 0.000392399
9 *817:RESET_B *143:72 0.000580598
10 *817:RESET_B *167:30 0
11 *45:18 *758:B 2.33476e-05
12 *45:18 *823:RESET_B 5.56356e-05
13 *45:18 *104:22 0
14 *45:18 *122:8 0.000147022
15 *45:18 *149:34 3.59534e-05
16 *45:32 *758:B 0.000792263
17 *45:32 *80:14 0.000162674
18 *45:32 *92:24 2.55744e-05
19 *45:32 *110:151 1.73198e-05
20 *45:32 *114:26 0.0019417
21 *45:32 *123:30 0
22 *45:32 *149:24 0.000297194
23 *45:32 *156:30 9.06553e-05
24 *45:32 *162:41 0
25 *6:25 *45:32 0
26 *37:10 *45:18 3.22051e-05
*RES
1 *787:Y *45:18 46.1096 
2 *45:18 *45:32 40.9861 
3 *45:32 *817:RESET_B 31.9029 
*END

*D_NET *46 0.00606872
*CONN
*I *818:RESET_B I *D sky130_fd_sc_hd__dfrtp_2
*I *788:Y O *D sky130_fd_sc_hd__inv_2
*CAP
1 *818:RESET_B 0.00124058
2 *788:Y 4.5791e-05
3 *46:8 0.00128638
4 *818:RESET_B *699:B 8.62876e-05
5 *818:RESET_B *762:A1 7.13102e-05
6 *818:RESET_B *824:RESET_B 0.00038265
7 *818:RESET_B *78:22 0.000295041
8 *818:RESET_B *89:20 0.000219253
9 *818:RESET_B *92:24 0.000300797
10 *818:RESET_B *116:20 0.000110054
11 *818:RESET_B *116:53 0.000188866
12 *818:RESET_B *116:59 0
13 *818:RESET_B *126:26 0
14 *818:RESET_B *129:102 0.000214237
15 *818:RESET_B *133:10 5.92738e-07
16 *818:RESET_B *142:136 4.08126e-05
17 *818:RESET_B *145:72 2.81216e-05
18 *818:RESET_B *149:34 0.000335267
19 *818:RESET_B *149:51 0.000228837
20 *818:RESET_B *156:18 5.56279e-05
21 *818:RESET_B *156:56 0.000245199
22 *46:8 *844:A 5.50049e-05
23 *34:14 *818:RESET_B 0.000638009
*RES
1 *788:Y *46:8 38.6214 
2 *46:8 *818:RESET_B 47.3246 
*END

*D_NET *47 0.0159734
*CONN
*I *819:RESET_B I *D sky130_fd_sc_hd__dfrtp_2
*I *789:Y O *D sky130_fd_sc_hd__inv_2
*CAP
1 *819:RESET_B 0.00206719
2 *789:Y 0.000517189
3 *47:14 0.00276742
4 *47:12 0.000700229
5 *47:10 0.000517189
6 *819:RESET_B *693:C 0.000159848
7 *819:RESET_B *755:B 0
8 *819:RESET_B *80:45 0
9 *819:RESET_B *92:38 0
10 *819:RESET_B *148:20 2.33162e-05
11 *819:RESET_B *153:12 0
12 *819:RESET_B *162:12 0.000256874
13 *819:RESET_B *165:48 1.42045e-05
14 *819:RESET_B *168:38 0.000195188
15 *47:10 *694:A 3.42398e-05
16 *47:10 *694:C 0.000116043
17 *47:10 *742:A 0.000231137
18 *47:10 *789:A 1.05235e-05
19 *47:10 *76:8 0.000390938
20 *47:10 *131:24 0
21 *47:10 *141:64 4.05745e-05
22 *47:10 *164:79 0.000477942
23 *47:14 *58:12 0.000227363
24 *47:14 *76:12 0
25 *47:14 *78:10 0.00358843
26 *47:14 *131:26 0.000602561
27 *5:13 *819:RESET_B 2.70012e-05
28 *29:20 *47:14 0.00300798
*RES
1 *789:Y *47:10 35.4493 
2 *47:10 *47:12 15 
3 *47:12 *47:14 52.7904 
4 *47:14 *819:RESET_B 38.0495 
*END

*D_NET *48 0.00485218
*CONN
*I *820:RESET_B I *D sky130_fd_sc_hd__dfrtp_1
*I *790:Y O *D sky130_fd_sc_hd__inv_2
*CAP
1 *820:RESET_B 0.000311791
2 *790:Y 0.00130094
3 *48:6 0.00161273
4 *820:RESET_B *89:28 4.05755e-05
5 *820:RESET_B *142:130 0
6 *820:RESET_B *158:37 0.000106001
7 *820:RESET_B *163:18 0.000156769
8 *48:6 *71:22 0.000346509
9 *48:6 *129:87 6.17437e-06
10 *48:6 *173:25 0.000246416
11 *814:RESET_B *48:6 0.00021591
12 *24:16 *820:RESET_B 0.00050633
13 *34:6 *48:6 2.03764e-06
*RES
1 *790:Y *48:6 38.8671 
2 *48:6 *820:RESET_B 37.1879 
*END

*D_NET *49 0.0111953
*CONN
*I *821:RESET_B I *D sky130_fd_sc_hd__dfrtp_2
*I *791:Y O *D sky130_fd_sc_hd__inv_2
*CAP
1 *821:RESET_B 0
2 *791:Y 0.00129458
3 *49:10 0.00141614
4 *49:8 0.00141614
5 *49:6 0.00129458
6 *49:6 *808:A 2.18409e-05
7 *49:6 *50:10 5.3304e-05
8 *49:6 *52:6 0.000147365
9 *49:6 *89:28 9.92279e-05
10 *49:6 *128:18 0.00011935
11 *49:6 *129:109 0.000187446
12 *49:6 *129:116 0.000204726
13 *49:6 *129:129 8.55841e-05
14 *49:6 *130:97 6.9908e-05
15 *49:10 *826:RESET_B 0
16 *49:10 *91:54 0.000172629
17 *49:10 *119:23 0
18 *49:10 *120:10 0.000402304
19 *49:10 *128:54 0.000199996
20 *49:10 *128:56 1.4471e-05
21 *49:10 *141:79 0.000773712
22 *49:10 *169:10 0.00158241
23 *49:10 *169:54 0.00134687
24 *30:8 *49:10 0.000107359
25 *41:10 *49:6 0.00018536
*RES
1 *791:Y *49:6 45.0607 
2 *49:6 *49:8 15 
3 *49:8 *49:10 42.4021 
4 *49:10 *821:RESET_B 15 
*END

*D_NET *50 0.00998097
*CONN
*I *822:RESET_B I *D sky130_fd_sc_hd__dfrtp_2
*I *792:Y O *D sky130_fd_sc_hd__inv_2
*CAP
1 *822:RESET_B 0.000478792
2 *792:Y 0.00025988
3 *50:28 0.00125209
4 *50:24 0.00118675
5 *50:10 0.000673329
6 *822:RESET_B *719:A 0.000484124
7 *822:RESET_B *66:14 0.00131207
8 *822:RESET_B *164:16 0.000234907
9 *822:RESET_B *165:6 6.39489e-05
10 *50:10 *55:22 4.0472e-05
11 *50:10 *153:64 0.000176312
12 *50:10 *166:63 0.000216721
13 *50:24 *118:22 2.65114e-05
14 *50:24 *156:45 5.73093e-05
15 *50:28 *778:A 3.04062e-05
16 *50:28 *90:33 0.00114334
17 *50:28 *122:27 0.00138866
18 *50:28 *151:12 0.000115901
19 *50:28 *154:27 0.000130407
20 *813:RESET_B *50:24 7.33563e-06
21 *813:RESET_B *50:28 4.77883e-05
22 *38:18 *50:24 0.000119439
23 *43:20 *50:10 0.000481164
24 *49:6 *50:10 5.3304e-05
*RES
1 *792:Y *50:10 45.2811 
2 *50:10 *50:24 32.8475 
3 *50:24 *50:28 38.2104 
4 *50:28 *822:RESET_B 14.8418 
*END

*D_NET *51 0.0037296
*CONN
*I *823:RESET_B I *D sky130_fd_sc_hd__dfrtp_4
*I *794:Y O *D sky130_fd_sc_hd__inv_2
*CAP
1 *823:RESET_B 0.000526294
2 *794:Y 0.000526294
3 *823:RESET_B *774:A 0.000234534
4 *823:RESET_B *787:A 0.000189176
5 *823:RESET_B *80:24 9.61708e-05
6 *823:RESET_B *106:58 5.32454e-05
7 *823:RESET_B *120:14 0.00154314
8 *37:10 *823:RESET_B 0.000505107
9 *45:18 *823:RESET_B 5.56356e-05
*RES
1 *794:Y *823:RESET_B 44.0354 
*END

*D_NET *52 0.0083521
*CONN
*I *824:RESET_B I *D sky130_fd_sc_hd__dfrtp_1
*I *795:Y O *D sky130_fd_sc_hd__inv_2
*CAP
1 *824:RESET_B 0.000712141
2 *795:Y 0.00183701
3 *52:6 0.00254915
4 *824:RESET_B *116:20 0.00016706
5 *824:RESET_B *116:53 0.000199303
6 *824:RESET_B *126:16 0
7 *824:RESET_B *133:18 0.0005866
8 *824:RESET_B *156:56 0.000767946
9 *824:RESET_B *156:71 0.000175974
10 *52:6 *808:A 2.64616e-05
11 *52:6 *128:18 0.000116427
12 *52:6 *129:109 0.000110253
13 *52:6 *129:116 0.000212241
14 *52:6 *129:129 9.02364e-05
15 *52:6 *130:97 9.17998e-05
16 *52:6 *158:37 0.000179473
17 *818:RESET_B *824:RESET_B 0.00038265
18 *49:6 *52:6 0.000147365
*RES
1 *795:Y *52:6 46.0136 
2 *52:6 *824:RESET_B 49.575 
*END

*D_NET *53 0.0107047
*CONN
*I *825:RESET_B I *D sky130_fd_sc_hd__dfrtp_4
*I *796:Y O *D sky130_fd_sc_hd__inv_2
*CAP
1 *825:RESET_B 0.000729243
2 *796:Y 0.000834403
3 *53:12 0.00138597
4 *53:6 0.00149113
5 *825:RESET_B *749:A 5.56356e-05
6 *825:RESET_B *749:B 0.00019049
7 *825:RESET_B *825:CLK 0.000221992
8 *825:RESET_B *108:14 1.95448e-05
9 *825:RESET_B *161:40 0.0019562
10 *53:6 *796:A 0.00016001
11 *53:6 *133:82 3.47781e-05
12 *53:6 *139:8 0.00022109
13 *53:6 *159:37 6.24251e-05
14 *53:6 *168:82 0.000513956
15 *53:6 *172:26 0.000969047
16 *53:12 *99:14 0.000111852
17 *53:12 *109:14 0.000281031
18 *53:12 *116:14 0.000689405
19 *53:12 *116:20 3.23525e-06
20 *53:12 *135:14 0.000164291
21 *53:12 *148:16 3.96053e-05
22 *53:12 *162:8 0.000321726
23 *53:12 *163:22 0.000111097
24 *53:12 *167:58 1.34354e-05
25 *39:14 *825:RESET_B 0.00012308
*RES
1 *796:Y *53:6 40.2964 
2 *53:6 *53:12 46.3436 
3 *53:12 *825:RESET_B 23.5832 
*END

*D_NET *54 0.00306255
*CONN
*I *826:RESET_B I *D sky130_fd_sc_hd__dfrtp_2
*I *797:Y O *D sky130_fd_sc_hd__inv_2
*CAP
1 *826:RESET_B 0.000485891
2 *797:Y 4.57773e-05
3 *54:8 0.000531668
4 *826:RESET_B *119:23 0.00115123
5 *826:RESET_B *128:54 0.000764483
6 *54:8 *764:B 5.50106e-05
7 *30:8 *826:RESET_B 2.84912e-05
8 *49:10 *826:RESET_B 0
*RES
1 *797:Y *54:8 38.6214 
2 *54:8 *826:RESET_B 30.6393 
*END

*D_NET *55 0.0150402
*CONN
*I *827:RESET_B I *D sky130_fd_sc_hd__dfrtp_1
*I *798:Y O *D sky130_fd_sc_hd__inv_2
*CAP
1 *827:RESET_B 6.69128e-05
2 *798:Y 0.000317654
3 *55:26 0.000904896
4 *55:22 0.00151757
5 *55:14 0.0023348
6 *55:8 0.00197286
7 *55:8 *798:A 3.16665e-05
8 *55:14 *110:16 2.26406e-05
9 *55:14 *110:58 0
10 *55:14 *119:21 0.000576586
11 *55:14 *139:10 0.000220337
12 *55:14 *139:12 0.000283744
13 *55:14 *139:48 5.56279e-05
14 *55:14 *139:76 0.000150437
15 *55:14 *148:20 0.000439461
16 *55:14 *148:56 0.000387627
17 *55:22 *57:10 0.000728122
18 *55:22 *144:66 0.000137717
19 *55:22 *152:50 0.000163361
20 *55:22 *152:63 0
21 *55:22 *153:64 0.000216149
22 *55:22 *166:63 0.000858564
23 *55:26 *126:61 0.000621883
24 *55:26 *136:14 0.00103244
25 *55:26 *151:12 0.00171622
26 *827:D *827:RESET_B 4.58635e-05
27 *31:22 *55:8 5.91889e-05
28 *43:20 *55:22 0.000137368
29 *50:10 *55:22 4.0472e-05
*RES
1 *798:Y *55:8 41.9564 
2 *55:8 *55:14 45.6986 
3 *55:14 *55:22 48.995 
4 *55:22 *55:26 38.7386 
5 *55:26 *827:RESET_B 16.0254 
*END

*D_NET *56 0.00370131
*CONN
*I *828:RESET_B I *D sky130_fd_sc_hd__dfrtp_1
*I *799:Y O *D sky130_fd_sc_hd__inv_2
*CAP
1 *828:RESET_B 0.000245765
2 *799:Y 0.000129359
3 *56:16 0.00117597
4 *56:8 0.00105956
5 *828:RESET_B *77:69 0.000109332
6 *828:RESET_B *134:80 0
7 *828:RESET_B *162:58 0.000238048
8 *56:8 *130:158 2.2281e-05
9 *56:8 *169:75 3.52233e-06
10 *56:16 *690:A 4.68153e-05
11 *56:16 *77:69 0.000336674
12 *56:16 *86:41 2.60152e-05
13 *56:16 *123:71 0.00012758
14 *56:16 *124:8 9.63388e-05
15 *56:16 *132:93 8.4047e-05
16 *56:16 *169:69 0
*RES
1 *799:Y *56:8 39.5743 
2 *56:8 *56:16 49.3057 
3 *56:16 *828:RESET_B 21.1314 
*END

*D_NET *57 0.0124935
*CONN
*I *829:RESET_B I *D sky130_fd_sc_hd__dfrtp_2
*I *800:Y O *D sky130_fd_sc_hd__inv_2
*CAP
1 *829:RESET_B 0.00050483
2 *800:Y 0.00119854
3 *57:10 0.00207754
4 *57:8 0.00157271
5 *57:6 0.00119854
6 *829:RESET_B *141:94 0.00068777
7 *829:RESET_B *148:10 0.000140856
8 *829:RESET_B *166:71 0.000276734
9 *57:6 *173:31 0.00143937
10 *57:10 *713:A 0
11 *57:10 *825:CLK 0
12 *57:10 *69:10 0.000151774
13 *57:10 *81:47 1.42808e-05
14 *57:10 *90:12 0.000259341
15 *57:10 *129:129 0.000999724
16 *57:10 *129:141 0.000617587
17 *57:10 *151:18 0
18 *57:10 *152:63 4.66422e-05
19 *57:10 *153:33 0.000393068
20 *57:10 *166:63 0.000186091
21 *57:10 *166:71 0
22 *55:22 *57:10 0.000728122
*RES
1 *800:Y *57:6 39.3436 
2 *57:6 *57:8 15 
3 *57:8 *57:10 38.1764 
4 *57:10 *829:RESET_B 28.4125 
*END

*D_NET *58 0.010355
*CONN
*I *830:RESET_B I *D sky130_fd_sc_hd__dfrtp_1
*I *801:Y O *D sky130_fd_sc_hd__inv_2
*CAP
1 *830:RESET_B 0.000757735
2 *801:Y 0.000461784
3 *58:12 0.00141906
4 *58:8 0.00112311
5 *830:RESET_B *715:A 0.00054301
6 *830:RESET_B *732:A 0.000129823
7 *830:RESET_B *132:68 0.000270918
8 *830:RESET_B *145:91 0.000397001
9 *830:RESET_B *168:74 0.00013264
10 *58:8 *710:A1 5.77113e-06
11 *58:8 *82:58 1.59094e-05
12 *58:8 *88:16 0.000101226
13 *58:12 *76:12 0.000222471
14 *58:12 *78:10 0.00221667
15 *58:12 *154:50 0.00218902
16 *16:10 *830:RESET_B 3.69131e-05
17 *29:6 *830:RESET_B 0.000104614
18 *47:14 *58:12 0.000227363
*RES
1 *801:Y *58:8 43.3857 
2 *58:8 *58:12 49.655 
3 *58:12 *830:RESET_B 16.9132 
*END

*D_NET *59 0.00749513
*CONN
*I *831:RESET_B I *D sky130_fd_sc_hd__dfrtp_1
*I *802:Y O *D sky130_fd_sc_hd__inv_2
*CAP
1 *831:RESET_B 0.00131133
2 *802:Y 0.000423892
3 *59:10 0.00173522
4 *831:RESET_B *844:A 9.04078e-05
5 *831:RESET_B *73:6 0.000733507
6 *831:RESET_B *78:22 0.000142636
7 *831:RESET_B *126:61 0.000156496
8 *831:RESET_B *137:10 2.69815e-05
9 *831:RESET_B *144:45 0.00090749
10 *831:RESET_B *150:6 0.000135037
11 *831:RESET_B *150:48 0.000465538
12 *831:RESET_B *157:14 0.000126137
13 *831:RESET_B *157:30 0.000307079
14 *59:10 *839:CLK 0.000268178
15 *59:10 *138:8 0.000312123
16 *59:10 *138:10 1.14452e-05
17 *839:D *59:10 3.17516e-05
18 *38:18 *59:10 0.000309892
*RES
1 *802:Y *59:10 46.3271 
2 *59:10 *831:RESET_B 43.0782 
*END

*D_NET *60 0.0154146
*CONN
*I *832:RESET_B I *D sky130_fd_sc_hd__dfrtp_1
*I *803:Y O *D sky130_fd_sc_hd__inv_2
*CAP
1 *832:RESET_B 2.67483e-05
2 *803:Y 0.000123226
3 *60:24 0.00503085
4 *60:10 0.00512733
5 *832:RESET_B *739:A_N 9.22663e-05
6 *832:RESET_B *122:27 4.81382e-05
7 *60:10 *130:141 0.000227284
8 *60:24 *778:A 0
9 *60:24 *91:73 0
10 *60:24 *93:24 0.00236482
11 *60:24 *112:22 0
12 *60:24 *112:34 0.000259171
13 *60:24 *122:27 1.3999e-05
14 *60:24 *126:61 3.40053e-05
15 *32:14 *60:10 6.69611e-05
16 *38:18 *60:24 0.00199979
*RES
1 *803:Y *60:10 49.1382 
2 *60:10 *60:24 39.3502 
3 *60:24 *832:RESET_B 16.0254 
*END

*D_NET *61 0.0153283
*CONN
*I *833:RESET_B I *D sky130_fd_sc_hd__dfrtp_2
*I *804:Y O *D sky130_fd_sc_hd__inv_2
*CAP
1 *833:RESET_B 0.0020366
2 *804:Y 8.81957e-05
3 *61:10 0.00367754
4 *61:8 0.00172913
5 *833:RESET_B *95:37 0.000803851
6 *833:RESET_B *116:59 0
7 *833:RESET_B *129:30 0.000476356
8 *833:RESET_B *146:14 0.000212565
9 *833:RESET_B *152:16 0.000130599
10 *61:8 *128:115 9.41704e-05
11 *61:10 *92:49 0.000161756
12 *61:10 *95:75 0.00356461
13 *61:10 *112:34 0.000285881
14 *61:10 *133:53 8.62876e-05
15 *61:10 *140:10 0.00101769
16 *61:10 *140:26 0.000238193
17 *61:10 *140:62 0.000128353
18 *61:10 *140:71 3.36034e-05
19 *20:12 *61:10 0.000562904
20 *38:18 *833:RESET_B 0
21 *40:14 *833:RESET_B 0
*RES
1 *804:Y *61:8 39.0979 
2 *61:8 *61:10 48.9168 
3 *61:10 *833:RESET_B 45.4532 
*END

*D_NET *62 0.000592413
*CONN
*I *834:RESET_B I *D sky130_fd_sc_hd__dfrtp_1
*I *805:Y O *D sky130_fd_sc_hd__inv_2
*CAP
1 *834:RESET_B 3.00604e-05
2 *805:Y 0.000172621
3 *62:8 0.000202681
4 *834:RESET_B *153:27 9.32992e-05
5 *834:RESET_B *164:104 2.15102e-05
6 *62:8 *156:71 0
7 *24:16 *62:8 7.22406e-05
*RES
1 *805:Y *62:8 40.61 
2 *62:8 *834:RESET_B 16.0254 
*END

*D_NET *63 0.00287362
*CONN
*I *835:RESET_B I *D sky130_fd_sc_hd__dfrtp_2
*I *806:Y O *D sky130_fd_sc_hd__inv_2
*CAP
1 *835:RESET_B 0.000671789
2 *806:Y 0.000431804
3 *63:18 0.00110359
4 *835:RESET_B *723:A 5.67058e-05
5 *835:RESET_B *96:8 0.000108242
6 *835:RESET_B *154:8 0.000133207
7 *63:18 *64:12 0.000255547
8 *63:18 *175:18 9.00851e-05
9 seg[5] *63:18 2.26497e-05
10 *39:10 *63:18 0
*RES
1 *806:Y *63:18 48.0464 
2 *63:18 *835:RESET_B 26.0304 
*END

*D_NET *64 0.0173659
*CONN
*I *836:RESET_B I *D sky130_fd_sc_hd__dfrtp_1
*I *807:Y O *D sky130_fd_sc_hd__inv_2
*CAP
1 *836:RESET_B 1.89289e-05
2 *807:Y 0.000282537
3 *64:22 0.00473429
4 *64:12 0.0065776
5 *64:8 0.00214478
6 *836:RESET_B *836:CLK 4.70852e-05
7 *64:8 *764:A_N 4.15198e-05
8 *64:8 *764:B 0.000142636
9 *64:12 *95:8 0
10 *64:12 *95:25 0
11 *64:12 *134:80 0.00110245
12 *64:12 *144:18 0
13 *64:12 *144:30 0
14 *64:12 *175:18 0.000169674
15 *64:22 *690:A 0.000562537
16 *64:22 *91:40 0.000260106
17 *64:22 *132:81 0
18 *64:22 *133:82 0
19 *64:22 *134:80 0
20 *64:22 *146:53 0
21 *64:22 *147:10 0
22 *64:22 *149:71 2.31116e-05
23 *64:22 *152:77 0
24 *64:22 *159:31 0.000242264
25 *64:22 *161:52 4.35681e-06
26 *64:22 *166:63 6.25481e-06
27 seg[2] *64:22 0
28 seg[4] *64:12 0.000156987
29 seg[5] *64:12 2.47015e-05
30 *5:13 *64:22 0
31 *12:10 *64:12 0
32 *26:18 *836:RESET_B 2.62973e-05
33 *39:10 *64:12 0
34 *39:10 *64:22 0.00054224
35 *63:18 *64:12 0.000255547
*RES
1 *807:Y *64:8 41.9564 
2 *64:8 *64:12 42.0604 
3 *64:12 *64:22 38.9369 
4 *64:22 *836:RESET_B 15.5489 
*END

*D_NET *65 0.0068436
*CONN
*I *837:RESET_B I *D sky130_fd_sc_hd__dfrtp_1
*I *808:Y O *D sky130_fd_sc_hd__inv_2
*CAP
1 *837:RESET_B 0.00231741
2 *808:Y 0.000117454
3 *65:8 0.00243487
4 *837:RESET_B *775:A2 0.000197483
5 *837:RESET_B *820:CLK 0.000387372
6 *837:RESET_B *153:50 0.000270953
7 *837:RESET_B *153:64 5.3304e-05
8 *837:RESET_B *157:8 5.3304e-05
9 *837:RESET_B *163:18 0.000124153
10 *837:RESET_B *163:39 4.03402e-05
11 *837:RESET_B *166:47 0.000207923
12 *65:8 *119:23 0.000292865
13 *65:8 *121:10 0.000292865
14 *34:14 *837:RESET_B 5.3304e-05
*RES
1 *808:Y *65:8 42.0186 
2 *65:8 *837:RESET_B 44.7768 
*END

*D_NET *66 0.0096152
*CONN
*I *838:RESET_B I *D sky130_fd_sc_hd__dfrtp_1
*I *809:Y O *D sky130_fd_sc_hd__inv_2
*CAP
1 *838:RESET_B 0.000197275
2 *809:Y 0.000506297
3 *66:14 0.00251316
4 *66:8 0.00282218
5 *838:RESET_B *82:10 0.000137651
6 *838:RESET_B *137:35 0.000125241
7 *838:RESET_B *164:34 4.56462e-05
8 *838:RESET_B *165:6 0.000384556
9 *66:8 *92:49 0
10 *66:8 *118:26 0
11 *66:8 *130:18 0.000300126
12 *66:8 *130:28 0.000577852
13 *66:14 *719:A 0.000251417
14 *66:14 *822:CLK 0.000105921
15 *66:14 *82:10 1.89095e-05
16 *66:14 *164:16 4.64502e-05
17 *66:14 *165:6 0.000215433
18 *822:RESET_B *66:14 0.00131207
19 *25:10 *66:8 0
20 *36:18 *66:14 5.50049e-05
*RES
1 *809:Y *66:8 49.7657 
2 *66:8 *66:14 46.9621 
3 *66:14 *838:RESET_B 5.31321 
*END

*D_NET *67 0.00102246
*CONN
*I *839:RESET_B I *D sky130_fd_sc_hd__dfrtp_1
*I *810:Y O *D sky130_fd_sc_hd__inv_2
*CAP
1 *839:RESET_B 0.000231618
2 *810:Y 0.000231618
3 *839:RESET_B *810:A 0.000267093
4 *839:RESET_B *116:59 0.000180559
5 *839:RESET_B *128:34 0.000111569
*RES
1 *810:Y *839:RESET_B 28.3132 
*END

*D_NET *68 0.0108518
*CONN
*I *840:RESET_B I *D sky130_fd_sc_hd__dfrtp_1
*I *811:Y O *D sky130_fd_sc_hd__inv_2
*CAP
1 *840:RESET_B 0.000813477
2 *811:Y 0.000146528
3 *68:12 0.00182901
4 *68:8 0.00116207
5 *840:RESET_B *718:B1 0.00011127
6 *840:RESET_B *841:RESET_B 0.000132388
7 *840:RESET_B *119:21 0.000135503
8 *840:RESET_B *132:81 2.19643e-05
9 *840:RESET_B *132:93 4.21733e-05
10 *840:RESET_B *140:10 0.00021731
11 *840:RESET_B *140:26 0.000104117
12 *840:RESET_B *140:62 0.000146729
13 *840:RESET_B *140:71 4.96168e-05
14 *840:RESET_B *153:46 1.45549e-05
15 *840:RESET_B *159:21 0.000681651
16 *840:RESET_B *160:16 0.000108681
17 *68:8 *716:B2 0.000177352
18 *68:8 *128:34 9.58714e-05
19 *68:8 *128:43 0.000263814
20 *68:12 *82:119 0.00120011
21 *68:12 *82:126 0.00026386
22 *68:12 *82:141 0.0010823
23 *68:12 *95:75 0.000658308
24 *68:12 *112:34 0.000128045
25 *68:12 *130:12 0.000836789
26 *68:12 *130:14 0.00034471
27 *20:12 *840:RESET_B 8.36198e-05
*RES
1 *811:Y *68:8 41.9564 
2 *68:8 *68:12 49.655 
3 *68:12 *840:RESET_B 48.3839 
*END

*D_NET *69 0.00792314
*CONN
*I *841:RESET_B I *D sky130_fd_sc_hd__dfrtp_2
*I *812:Y O *D sky130_fd_sc_hd__inv_2
*CAP
1 *841:RESET_B 0.000609471
2 *812:Y 0
3 *69:10 0.0016546
4 *69:4 0.00104513
5 *841:RESET_B *129:141 1.94693e-05
6 *841:RESET_B *132:93 7.99191e-05
7 *841:RESET_B *133:53 0.000296598
8 *69:10 *772:B1 9.67842e-05
9 *69:10 *812:A 0.000511094
10 *69:10 *74:8 4.5051e-05
11 *69:10 *116:14 4.64428e-05
12 *69:10 *116:74 2.42065e-05
13 *69:10 *146:72 0.000431988
14 *69:10 *149:71 0.000686223
15 *69:10 *150:35 0.000306062
16 *69:10 *151:18 0.000143001
17 *69:10 *151:28 0.00151725
18 *69:10 *168:38 2.18506e-05
19 *69:10 *169:75 7.73735e-05
20 *840:RESET_B *841:RESET_B 0.000132388
21 *32:14 *841:RESET_B 2.64616e-05
22 *57:10 *69:10 0.000151774
*RES
1 *812:Y *69:4 23 
2 *69:4 *69:10 47.0243 
3 *69:10 *841:RESET_B 24.2904 
*END

*D_NET *70 0.00826886
*CONN
*I *813:D I *D sky130_fd_sc_hd__dfrtp_4
*I *709:Y O *D sky130_fd_sc_hd__a21oi_1
*CAP
1 *813:D 0.00176448
2 *709:Y 0.000358703
3 *70:16 0.00232175
4 *70:12 0.000915976
5 *813:D *777:A 6.44288e-05
6 *813:D *82:98 5.14534e-05
7 *813:D *126:32 6.84186e-06
8 *813:D *126:49 1.59094e-05
9 *813:D *138:77 9.41553e-05
10 *70:12 *695:A 4.79132e-05
11 *70:12 *762:A1 6.17437e-06
12 *70:12 *770:A 0.000137361
13 *70:12 *87:23 2.05597e-05
14 *70:12 *123:12 0.000177604
15 *70:12 *150:24 9.41704e-05
16 *70:16 *85:8 8.21974e-05
17 *70:16 *96:35 0.000537964
18 *70:16 *149:24 0.00051857
19 *70:16 *166:22 9.6958e-05
20 *70:16 *166:47 5.7203e-05
21 *26:18 *70:16 0.000898484
*RES
1 *709:Y *70:12 44.0279 
2 *70:12 *70:16 32.0479 
3 *70:16 *813:D 43.6729 
*END

*D_NET *71 0.00884586
*CONN
*I *814:D I *D sky130_fd_sc_hd__dfrtp_4
*I *707:X O *D sky130_fd_sc_hd__xor2_1
*CAP
1 *814:D 0
2 *707:X 0.000255649
3 *71:22 0.00146121
4 *71:16 0.00204276
5 *71:10 0.000837206
6 *71:10 *73:18 0.000436243
7 *71:10 *132:93 9.41704e-05
8 *71:10 *142:170 4.67488e-05
9 *71:10 *144:16 0.000436243
10 *71:16 *130:101 8.67228e-06
11 *71:16 *130:107 8.91468e-07
12 *71:16 *134:21 8.65441e-05
13 *71:22 *814:CLK 0.000624075
14 *71:22 *828:CLK 0.000127754
15 *71:22 *82:141 0.00101261
16 *71:22 *83:16 0.0007402
17 *71:22 *126:16 9.64943e-05
18 *22:10 *71:22 7.18129e-05
19 *22:12 *71:22 0.000117604
20 *34:6 *71:22 2.45549e-06
21 *48:6 *71:22 0.000346509
*RES
1 *707:X *71:10 45.2293 
2 *71:10 *71:16 36.3386 
3 *71:16 *71:22 47.6043 
4 *71:22 *814:D 23 
*END

*D_NET *72 0.00166788
*CONN
*I *815:D I *D sky130_fd_sc_hd__dfrtp_4
*I *705:Y O *D sky130_fd_sc_hd__o31ai_1
*CAP
1 *815:D 0
2 *705:Y 0.000345652
3 *72:6 0.000345652
4 *72:6 *705:B1 0.000157533
5 *72:6 *741:A 0.000100069
6 *72:6 *815:CLK 7.15126e-05
7 *72:6 *143:18 0.000647461
*RES
1 *705:Y *72:6 31.7207 
2 *72:6 *815:D 23 
*END

*D_NET *73 0.0144855
*CONN
*I *816:D I *D sky130_fd_sc_hd__dfrtp_4
*I *697:X O *D sky130_fd_sc_hd__xor2_1
*CAP
1 *816:D 0
2 *697:X 0.00156495
3 *73:18 0.000806162
4 *73:12 0.0016852
5 *73:6 0.00244399
6 *73:6 *144:45 0.000562925
7 *73:12 *91:54 0.000224409
8 *73:12 *130:78 0.000463738
9 *73:12 *130:91 0.000244517
10 *73:12 *141:111 0.000942082
11 *73:12 *144:16 0.00117737
12 *73:12 *144:18 0.00106713
13 *73:12 *144:30 6.25829e-05
14 *73:12 *169:54 0.000267828
15 *73:18 *124:8 2.64866e-05
16 *73:18 *128:105 2.64616e-05
17 *73:18 *141:79 0.000413215
18 *73:18 *141:92 0.000418649
19 *73:18 *144:16 0.000299471
20 *73:18 *168:16 6.82197e-05
21 *73:18 *168:26 5.12254e-05
22 *73:18 *169:54 0.000499181
23 *831:RESET_B *73:6 0.000733507
24 *71:10 *73:18 0.000436243
*RES
1 *697:X *73:6 43.6314 
2 *73:6 *73:12 47.0554 
3 *73:12 *73:18 37.2368 
4 *73:18 *816:D 23 
*END

*D_NET *74 0.00687515
*CONN
*I *695:B I *D sky130_fd_sc_hd__and4_2
*I *692:X O *D sky130_fd_sc_hd__and4_1
*CAP
1 *695:B 0
2 *692:X 0.000422599
3 *74:22 9.29375e-05
4 *74:14 0.00144843
5 *74:8 0.00177809
6 *74:8 *149:71 0.00043065
7 *74:14 *80:45 0.00014046
8 *74:14 *81:14 0.00143908
9 *74:14 *82:85 0.000107611
10 *74:14 *85:8 1.0092e-05
11 *74:14 *135:30 2.92911e-06
12 *74:14 *149:8 0.000116197
13 *74:14 *149:71 0.000483364
14 *74:14 *159:37 0.000159611
15 *74:22 *75:44 2.93845e-05
16 *74:22 *172:12 8.50457e-05
17 *74:22 *173:12 8.36198e-05
18 *69:10 *74:8 4.5051e-05
*RES
1 *692:X *74:8 43.8621 
2 *74:8 *74:14 42.1564 
3 *74:14 *74:22 31.8229 
4 *74:22 *695:B 23 
*END

*D_NET *75 0.0298902
*CONN
*I *749:B I *D sky130_fd_sc_hd__and3_1
*I *742:B I *D sky130_fd_sc_hd__nor2_1
*I *741:B I *D sky130_fd_sc_hd__and2_1
*I *739:A_N I *D sky130_fd_sc_hd__and2b_1
*I *695:C I *D sky130_fd_sc_hd__and4_2
*I *744:C I *D sky130_fd_sc_hd__and3_2
*I *693:X O *D sky130_fd_sc_hd__and4_2
*CAP
1 *749:B 0.00186344
2 *742:B 0.000119143
3 *741:B 0
4 *739:A_N 0.00146674
5 *695:C 0
6 *744:C 0
7 *693:X 0.000173526
8 *75:107 0.00218927
9 *75:83 0.00038437
10 *75:66 0.00238096
11 *75:58 0.00149607
12 *75:56 0.00125937
13 *75:44 0.00144778
14 *75:25 0.000681253
15 *75:19 0.000751631
16 *75:8 0.00107476
17 *739:A_N *771:B1 1.59094e-05
18 *739:A_N *771:B2 2.42041e-05
19 *739:A_N *797:A 2.4754e-05
20 *739:A_N *832:CLK 3.71251e-05
21 *739:A_N *122:27 0.000232316
22 *739:A_N *130:28 4.96717e-05
23 *742:B *742:A 9.41704e-05
24 *742:B *789:A 9.02048e-05
25 *742:B *105:6 1.83408e-05
26 *749:B *779:A 2.87992e-05
27 *749:B *161:46 4.73422e-05
28 *75:8 *744:A 0.00010095
29 *75:8 *164:104 6.0894e-06
30 *75:19 *106:8 0.000188934
31 *75:19 *106:14 0.00139
32 *75:19 *145:91 0.00040784
33 *75:19 *164:89 0.000509012
34 *75:19 *164:93 7.79778e-05
35 *75:19 *170:16 0
36 *75:25 *695:D 0.000227935
37 *75:25 *83:22 1.10658e-05
38 *75:44 *695:A 9.77405e-05
39 *75:44 *77:10 1.03972e-05
40 *75:44 *83:16 6.15719e-05
41 *75:44 *83:22 0.000119372
42 *75:44 *97:36 0.000435635
43 *75:44 *172:12 0
44 *75:44 *173:12 9.11082e-05
45 *75:44 *173:25 0.000477906
46 *75:56 *77:124 0.00011563
47 *75:56 *80:18 0.00105473
48 *75:56 *85:8 0.000412771
49 *75:56 *97:36 0.000110373
50 *75:56 *98:16 0.000268096
51 *75:56 *137:27 0.000258825
52 *75:56 *137:55 0.000924754
53 *75:56 *167:16 0.000688672
54 *75:58 *80:18 0.000470361
55 *75:58 *137:27 0.000186804
56 *75:58 *137:35 0.000279476
57 *75:66 *712:B 0.000348161
58 *75:66 *771:B2 3.77008e-05
59 *75:66 *80:18 0.000408626
60 *75:66 *94:14 0.000374573
61 *75:66 *110:164 9.5877e-05
62 *75:66 *123:30 6.96976e-05
63 *75:66 *131:16 0.000472461
64 *75:66 *137:35 0.000108681
65 *75:66 *146:20 0.000142147
66 *75:83 *730:A 0.00034501
67 *75:83 *146:20 9.41704e-05
68 *75:83 *164:34 0
69 *75:83 *165:10 0.000267298
70 *75:107 *164:89 0
71 *75:107 *170:16 0.000523111
72 *825:RESET_B *749:B 0.00019049
73 *832:D *739:A_N 0.000127883
74 *832:RESET_B *739:A_N 9.22663e-05
75 *16:10 *75:44 3.7218e-05
76 *33:26 *749:B 0.00119026
77 *74:22 *75:44 2.93845e-05
*RES
1 *693:X *75:8 25.5479 
2 *75:8 *744:C 23 
3 *75:8 *75:19 37.2886 
4 *75:19 *75:25 18.5007 
5 *75:25 *695:C 23 
6 *75:25 *75:44 41.9936 
7 *75:44 *75:56 44.4971 
8 *75:56 *75:58 6.48357 
9 *75:58 *75:66 35.2379 
10 *75:66 *739:A_N 42.6993 
11 *75:58 *75:83 37.6229 
12 *75:83 *741:B 38 
13 *75:56 *742:B 40.5479 
14 *75:8 *75:107 37.1879 
15 *75:107 *749:B 49.3486 
*END

*D_NET *76 0.00746028
*CONN
*I *695:D I *D sky130_fd_sc_hd__and4_2
*I *694:X O *D sky130_fd_sc_hd__and4_1
*CAP
1 *695:D 0.000156763
2 *694:X 0.000149248
3 *76:12 0.000849971
4 *76:8 0.000842456
5 *695:D *83:22 0.000134975
6 *695:D *164:85 9.41704e-05
7 *76:8 *141:64 5.56279e-05
8 *76:8 *142:45 9.78729e-06
9 *76:8 *142:58 6.24251e-05
10 *76:8 *143:26 9.77405e-05
11 *76:8 *143:34 9.41704e-05
12 *76:12 *106:26 0.000658608
13 *76:12 *145:91 5.7203e-05
14 *76:12 *154:50 0.00178706
15 *76:12 *164:89 3.70094e-05
16 *28:12 *76:12 0.00153172
17 *29:20 *76:12 0
18 *47:10 *76:8 0.000390938
19 *47:14 *76:12 0
20 *58:12 *76:12 0.000222471
21 *75:25 *695:D 0.000227935
*RES
1 *694:X *76:8 42.4329 
2 *76:8 *76:12 46.1336 
3 *76:12 *695:D 26.9564 
*END

*D_NET *77 0.0349136
*CONN
*I *701:A I *D sky130_fd_sc_hd__clkbuf_4
*I *696:D I *D sky130_fd_sc_hd__and4_1
*I *779:D I *D sky130_fd_sc_hd__and4_1
*I *717:B I *D sky130_fd_sc_hd__nand2_1
*I *706:D I *D sky130_fd_sc_hd__and4_1
*I *718:A2 I *D sky130_fd_sc_hd__a21o_1
*I *776:C I *D sky130_fd_sc_hd__and3_1
*I *695:X O *D sky130_fd_sc_hd__and4_2
*CAP
1 *701:A 0
2 *696:D 0.000308726
3 *779:D 0.000119139
4 *717:B 0.000186285
5 *706:D 0
6 *718:A2 0
7 *776:C 0
8 *695:X 0.000371817
9 *77:124 0.00326387
10 *77:86 0.000905272
11 *77:69 0.000986034
12 *77:58 0.00125179
13 *77:49 0.000518758
14 *77:37 0.0016229
15 *77:30 0.00222924
16 *77:22 0.00260934
17 *77:14 0.00391587
18 *77:10 0.000469014
19 *696:D *111:14 0.000170791
20 *696:D *165:69 0.000576736
21 *717:B *738:B1 6.51573e-05
22 *717:B *92:10 1.96141e-05
23 *779:D *779:A 0.000273267
24 *779:D *779:C 2.93335e-05
25 *779:D *127:6 0.000442911
26 *779:D *152:77 4.62545e-05
27 *77:10 *695:A 9.03364e-06
28 *77:10 *83:16 2.27289e-05
29 *77:10 *83:22 0.000400039
30 *77:14 *83:16 0.000150012
31 *77:14 *103:28 1.36167e-05
32 *77:14 *165:42 8.95203e-05
33 *77:22 *82:85 1.50638e-05
34 *77:22 *86:28 0.000729273
35 *77:22 *111:14 0.000322674
36 *77:22 *135:30 0.000246118
37 *77:22 *150:24 2.26497e-05
38 *77:22 *165:42 0.000107024
39 *77:30 *86:14 0.000908288
40 *77:30 *116:14 0.000180218
41 *77:30 *130:115 0.000598581
42 *77:37 *776:A 0.000137368
43 *77:37 *140:30 6.4725e-05
44 *77:37 *153:46 0.000164704
45 *77:37 *160:16 3.50539e-05
46 *77:49 *702:A_N 3.5471e-05
47 *77:49 *713:C 9.41704e-05
48 *77:49 *772:B1 5.12254e-05
49 *77:49 *82:141 6.01895e-05
50 *77:49 *95:75 0.000124469
51 *77:49 *130:141 0.00034234
52 *77:58 *706:B 0.000175903
53 *77:58 *706:C 5.3304e-05
54 *77:58 *773:B 0.000461968
55 *77:58 *82:141 9.41704e-05
56 *77:58 *82:154 4.2573e-05
57 *77:58 *160:16 2.25809e-05
58 *77:69 *690:A 4.45839e-05
59 *77:69 *706:C 4.08664e-05
60 *77:69 *773:B 5.50106e-05
61 *77:69 *134:6 5.3304e-05
62 *77:69 *134:21 0.000106814
63 *77:69 *144:16 0.00182942
64 *77:69 *144:18 0.000195931
65 *77:69 *160:16 1.40958e-05
66 *77:69 *162:58 0.00122175
67 *77:86 *693:C 2.79552e-05
68 *77:86 *86:28 2.70366e-05
69 *77:86 *111:14 0.000344108
70 *77:86 *145:105 9.02657e-05
71 *77:86 *165:69 0.000332679
72 *77:86 *170:16 0
73 *77:86 *173:12 0
74 *77:124 *80:18 0.000154297
75 *77:124 *80:45 0.00119542
76 *77:124 *82:77 0.000104531
77 *77:124 *83:16 0.000153827
78 *77:124 *95:53 4.79747e-05
79 *77:124 *103:28 4.12427e-06
80 *77:124 *117:18 0.000120147
81 *77:124 *123:16 4.6719e-05
82 *77:124 *150:24 7.86446e-05
83 *77:124 *162:41 0.000767506
84 *77:124 *165:42 0.000118922
85 *77:124 *167:16 0.00014983
86 *828:RESET_B *77:69 0.000109332
87 *6:25 *77:124 8.9646e-05
88 *16:10 *77:10 4.80465e-05
89 *16:10 *77:22 2.46885e-05
90 *32:14 *77:49 0.00037412
91 *38:30 *77:30 0.000254852
92 *38:30 *77:37 6.72912e-05
93 *56:16 *77:69 0.000336674
94 *75:44 *77:10 1.03972e-05
95 *75:56 *77:124 0.00011563
*RES
1 *695:X *77:10 43.5825 
2 *77:10 *77:14 8.3136 
3 *77:14 *77:22 22.8211 
4 *77:22 *77:30 42.3325 
5 *77:30 *776:C 23 
6 *77:30 *77:37 8.37893 
7 *77:37 *77:49 41.5171 
8 *77:49 *718:A2 23 
9 *77:37 *77:58 8.265 
10 *77:58 *706:D 23 
11 *77:58 *77:69 46.175 
12 *77:69 *717:B 41.5007 
13 *77:22 *77:86 12.5321 
14 *77:86 *779:D 42.9093 
15 *77:86 *696:D 46.9486 
16 *77:14 *77:124 48.424 
17 *77:124 *701:A 23 
*END

*D_NET *78 0.0187376
*CONN
*I *697:B I *D sky130_fd_sc_hd__xor2_1
*I *696:X O *D sky130_fd_sc_hd__and4_1
*CAP
1 *697:B 0
2 *696:X 0.000694713
3 *78:22 0.000241037
4 *78:14 0.00246406
5 *78:10 0.00334917
6 *78:8 0.00182087
7 *78:8 *752:B 0.000319405
8 *78:8 *110:85 5.96239e-05
9 *78:10 *131:26 0.00030877
10 *78:10 *154:50 0.000724202
11 *78:14 *154:48 0.00223779
12 *78:14 *174:12 7.31833e-05
13 *78:22 *844:A 7.43209e-05
14 *78:22 *129:14 5.01195e-05
15 *78:22 *129:18 3.70187e-05
16 *78:22 *149:34 4.0544e-05
17 *818:RESET_B *78:22 0.000295041
18 *831:RESET_B *78:22 0.000142636
19 *47:14 *78:10 0.00358843
20 *58:12 *78:10 0.00221667
*RES
1 *696:X *78:8 47.6736 
2 *78:8 *78:10 56.4879 
3 *78:10 *78:14 44.2071 
4 *78:14 *78:22 36.6493 
5 *78:22 *697:B 23 
*END

*D_NET *79 0.000833976
*CONN
*I *705:A2 I *D sky130_fd_sc_hd__o31ai_1
*I *698:Y O *D sky130_fd_sc_hd__a21oi_1
*CAP
1 *705:A2 1.9296e-05
2 *698:Y 0.000168392
3 *79:10 0.000187688
4 *705:A2 *705:A3 3.45774e-05
5 *79:10 *106:50 0.00014411
6 *79:10 *107:18 0.000139647
7 *79:10 *142:58 0.000140266
*RES
1 *698:Y *79:10 41.5111 
2 *79:10 *705:A2 38.3832 
*END

*D_NET *80 0.021162
*CONN
*I *700:B I *D sky130_fd_sc_hd__nor2_1
*I *731:B1_N I *D sky130_fd_sc_hd__a21boi_1
*I *699:X O *D sky130_fd_sc_hd__or3b_2
*CAP
1 *700:B 0
2 *731:B1_N 0
3 *699:X 0.000265509
4 *80:45 0.00236099
5 *80:24 0.000853211
6 *80:18 0.00207422
7 *80:14 0.00421981
8 *80:10 0.000903318
9 *80:10 *780:A2_N 5.3304e-05
10 *80:10 *82:98 7.99765e-05
11 *80:10 *82:113 0.000167036
12 *80:10 *101:14 1.63828e-05
13 *80:10 *157:14 0.000119526
14 *80:14 *92:24 8.75369e-05
15 *80:14 *96:35 0.000695047
16 *80:18 *95:53 0
17 *80:18 *98:16 0.00148767
18 *80:18 *117:18 0.00015692
19 *80:18 *146:20 8.41378e-05
20 *80:18 *162:41 4.91853e-05
21 *80:18 *166:22 0
22 *80:24 *731:A1 0.00014384
23 *80:24 *731:A2 0.000223901
24 *80:24 *106:58 2.58816e-05
25 *80:24 *166:8 0.000100061
26 *80:45 *81:14 0.000196582
27 *80:45 *85:8 0.000105443
28 *80:45 *92:38 0
29 *80:45 *111:14 0.000112947
30 *80:45 *141:100 5.75756e-06
31 *80:45 *161:67 2.53679e-05
32 *80:45 *162:29 0.00157896
33 *80:45 *162:41 0.00113636
34 *80:45 *165:42 0.000150391
35 *819:RESET_B *80:45 0
36 *823:RESET_B *80:24 9.61708e-05
37 *45:32 *80:14 0.000162674
38 *74:14 *80:45 0.00014046
39 *75:56 *80:18 0.00105473
40 *75:58 *80:18 0.000470361
41 *75:66 *80:18 0.000408626
42 *77:124 *80:18 0.000154297
43 *77:124 *80:45 0.00119542
*RES
1 *699:X *80:10 42.2568 
2 *80:10 *80:14 9.68747 
3 *80:14 *80:18 41.4225 
4 *80:18 *80:24 27.905 
5 *80:24 *731:B1_N 23 
6 *80:14 *80:45 48.6599 
7 *80:45 *700:B 23 
*END

*D_NET *81 0.0146179
*CONN
*I *726:A I *D sky130_fd_sc_hd__nor2_1
*I *702:A_N I *D sky130_fd_sc_hd__nand4b_2
*I *725:B1 I *D sky130_fd_sc_hd__a2111o_1
*I *700:Y O *D sky130_fd_sc_hd__nor2_1
*CAP
1 *726:A 0
2 *702:A_N 0.000144919
3 *725:B1 0
4 *700:Y 0
5 *81:61 0.00040327
6 *81:51 0.000378496
7 *81:47 0.00139462
8 *81:26 0.00043483
9 *81:14 0.0018268
10 *81:4 0.00266644
11 *702:A_N *130:141 0.000103575
12 *81:14 *85:8 0.000177235
13 *81:14 *110:30 7.32443e-05
14 *81:14 *111:14 0.000260162
15 *81:14 *130:115 0.000367698
16 *81:14 *149:71 7.73823e-06
17 *81:14 *152:77 0
18 *81:14 *161:67 0
19 *81:14 *167:12 0.000221746
20 *81:14 *167:16 0.00031392
21 *81:26 *725:A2 0.000182087
22 *81:26 *97:36 9.78729e-06
23 *81:26 *106:14 5.50106e-05
24 *81:26 *173:6 0.000146239
25 *81:26 *173:25 0.000609639
26 *81:47 *721:A 2.95526e-05
27 *81:47 *767:B 0.000649762
28 *81:47 *114:14 0.000187109
29 *81:47 *116:74 2.02872e-05
30 *81:47 *166:71 2.76005e-05
31 *81:47 *168:38 0.000279052
32 *81:51 *110:109 0.000540523
33 *81:51 *121:8 0.000274303
34 *81:61 *825:CLK 9.47033e-05
35 *81:61 *95:75 8.43186e-05
36 *32:6 *81:47 6.37711e-05
37 *32:14 *702:A_N 0.000260026
38 *34:6 *81:26 0.000644029
39 *57:10 *81:47 1.42808e-05
40 *74:14 *81:14 0.00143908
41 *77:49 *702:A_N 3.5471e-05
42 *80:45 *81:14 0.000196582
*RES
1 *700:Y *81:4 23 
2 *81:4 *81:14 47.5421 
3 *81:14 *81:26 27.3871 
4 *81:26 *725:B1 23 
5 *81:4 *81:47 40.2921 
6 *81:47 *81:51 20.8621 
7 *81:51 *81:61 49.6607 
8 *81:61 *702:A_N 41.6664 
9 *81:51 *726:A 23 
*END

*D_NET *82 0.0394257
*CONN
*I *713:C I *D sky130_fd_sc_hd__and3_1
*I *702:B I *D sky130_fd_sc_hd__nand4b_2
*I *773:A I *D sky130_fd_sc_hd__nor2_1
*I *775:A2 I *D sky130_fd_sc_hd__a21oi_1
*I *716:A2_N I *D sky130_fd_sc_hd__o2bb2a_1
*I *780:A2_N I *D sky130_fd_sc_hd__o2bb2a_1
*I *704:A3 I *D sky130_fd_sc_hd__a31o_1
*I *710:A2 I *D sky130_fd_sc_hd__a21oi_1
*I *711:C I *D sky130_fd_sc_hd__and3_1
*I *774:B I *D sky130_fd_sc_hd__xor2_1
*I *701:X O *D sky130_fd_sc_hd__clkbuf_4
*CAP
1 *713:C 0.000266024
2 *702:B 0
3 *773:A 0
4 *775:A2 0.000273675
5 *716:A2_N 0
6 *780:A2_N 0.000363063
7 *704:A3 0
8 *710:A2 0
9 *711:C 0.000137256
10 *774:B 0.000174273
11 *701:X 7.77674e-05
12 *82:154 0.00057159
13 *82:141 0.00117252
14 *82:126 0.00122358
15 *82:119 0.000906672
16 *82:113 0.00222467
17 *82:98 0.00275046
18 *82:85 0.000547188
19 *82:77 0.00130099
20 *82:67 0.00225522
21 *82:58 0.000761424
22 *82:46 0.00158623
23 *82:20 0.00106152
24 *82:10 0.00130349
25 *711:C *711:A 5.3304e-05
26 *711:C *760:A1 0.000217625
27 *711:C *131:10 6.96657e-05
28 *713:C *718:B1 0.000106571
29 *713:C *772:B1 0.000116419
30 *713:C *91:73 5.3304e-05
31 *713:C *169:75 0.000523423
32 *774:B *141:47 1.40087e-05
33 *774:B *143:94 0
34 *774:B *152:16 0
35 *774:B *157:39 1.17256e-05
36 *775:A2 *125:10 3.17516e-05
37 *775:A2 *152:63 5.56279e-05
38 *775:A2 *153:50 0.0001423
39 *780:A2_N *780:A1_N 2.18506e-05
40 *780:A2_N *127:20 0.00018902
41 *780:A2_N *141:24 9.41704e-05
42 *780:A2_N *144:87 7.91662e-05
43 *82:10 *137:35 9.5877e-05
44 *82:20 *737:B 0.000183544
45 *82:20 *89:14 7.8514e-05
46 *82:20 *95:53 8.52094e-06
47 *82:20 *99:20 0.000467852
48 *82:20 *132:125 0.000111106
49 *82:20 *141:47 2.88975e-05
50 *82:20 *146:20 0.000490262
51 *82:20 *157:39 7.59955e-05
52 *82:46 *99:20 0.000799557
53 *82:46 *137:27 0.000180329
54 *82:46 *137:35 0.000140692
55 *82:46 *146:20 0.000109458
56 *82:58 *710:A1 6.17437e-06
57 *82:58 *94:24 2.11157e-05
58 *82:58 *106:44 0.00011057
59 *82:58 *107:18 2.31209e-05
60 *82:58 *141:64 1.58287e-05
61 *82:58 *156:30 0
62 *82:67 *99:20 0.000860652
63 *82:67 *100:16 0.000631073
64 *82:67 *137:27 2.15575e-05
65 *82:67 *137:55 8.77813e-05
66 *82:77 *139:35 3.22879e-05
67 *82:77 *165:42 0.000839596
68 *82:77 *167:30 0.000138718
69 *82:85 *111:14 0.000519104
70 *82:85 *135:30 0.000268158
71 *82:85 *150:24 0.000164191
72 *82:85 *165:42 7.07672e-05
73 *82:98 *101:14 0.000104611
74 *82:98 *157:14 1.22803e-05
75 *82:113 *130:12 9.41704e-05
76 *82:113 *144:66 0.0017403
77 *82:113 *144:87 0.000263538
78 *82:119 *90:33 0.00051424
79 *82:119 *103:28 0.000123119
80 *82:119 *128:18 0.000984311
81 *82:119 *128:22 0.000240435
82 *82:119 *130:14 3.72639e-05
83 *82:126 *128:18 0.000274003
84 *82:141 *83:16 5.94244e-05
85 *82:141 *91:40 7.57281e-06
86 *82:141 *95:75 0.000173834
87 *82:141 *123:57 8.22421e-06
88 *82:141 *128:18 0.000420258
89 *82:141 *130:141 0.000132142
90 *82:141 *160:16 4.67488e-05
91 *82:154 *702:C 0.000245347
92 *82:154 *83:16 0.000567819
93 *82:154 *130:141 3.46351e-05
94 *82:154 *134:25 0.00040464
95 *82:154 *160:16 2.64616e-05
96 *813:D *82:98 5.14534e-05
97 *817:RESET_B *82:77 0
98 *837:RESET_B *775:A2 0.000197483
99 *838:RESET_B *82:10 0.000137651
100 *16:10 *82:77 3.92407e-05
101 *21:20 *82:58 9.76849e-05
102 *22:12 *82:119 2.24973e-05
103 *22:12 *82:141 6.59613e-05
104 *23:10 *774:B 4.30457e-05
105 *33:10 *82:20 0.000359635
106 *36:10 *82:20 0.000164523
107 *58:8 *82:58 1.59094e-05
108 *66:14 *82:10 1.89095e-05
109 *68:12 *82:119 0.00120011
110 *68:12 *82:126 0.00026386
111 *68:12 *82:141 0.0010823
112 *71:22 *82:141 0.00101261
113 *74:14 *82:85 0.000107611
114 *77:22 *82:85 1.50638e-05
115 *77:49 *713:C 9.41704e-05
116 *77:49 *82:141 6.01895e-05
117 *77:58 *82:141 9.41704e-05
118 *77:58 *82:154 4.2573e-05
119 *77:124 *82:77 0.000104531
120 *80:10 *780:A2_N 5.3304e-05
121 *80:10 *82:98 7.99765e-05
122 *80:10 *82:113 0.000167036
*RES
1 *701:X *82:10 40.0714 
2 *82:10 *82:20 48.1664 
3 *82:20 *774:B 40.9621 
4 *82:20 *711:C 41.4489 
5 *82:10 *82:46 11.2375 
6 *82:46 *82:58 33.3724 
7 *82:58 *710:A2 23 
8 *82:46 *82:67 26.9418 
9 *82:67 *82:77 44.5621 
10 *82:77 *82:85 41.4964 
11 *82:85 *704:A3 23 
12 *82:67 *82:98 43.1329 
13 *82:98 *780:A2_N 28.5514 
14 *82:98 *82:113 38.49 
15 *82:113 *82:119 38.2621 
16 *82:119 *716:A2_N 23 
17 *82:113 *82:126 3.66643 
18 *82:126 *775:A2 43.8621 
19 *82:126 *82:141 41.245 
20 *82:141 *773:A 23 
21 *82:141 *82:154 39.57 
22 *82:154 *702:B 23 
23 *82:154 *713:C 31.1821 
*END

*D_NET *83 0.0212199
*CONN
*I *709:A2 I *D sky130_fd_sc_hd__a21oi_1
*I *705:A3 I *D sky130_fd_sc_hd__o31ai_1
*I *702:Y O *D sky130_fd_sc_hd__nand4b_2
*CAP
1 *709:A2 3.84799e-05
2 *705:A3 0.000364025
3 *702:Y 0
4 *83:26 0.00129578
5 *83:22 0.00158686
6 *83:18 0.000693581
7 *83:16 0.00320465
8 *83:6 0.00320465
9 *705:A3 *705:A1 8.17328e-05
10 *705:A3 *131:24 0.0002263
11 *709:A2 *695:A 5.12055e-06
12 *709:A2 *150:24 0
13 *83:16 *103:28 5.34733e-06
14 *83:16 *110:30 0.000320311
15 *83:16 *110:43 5.53445e-05
16 *83:16 *113:24 3.91292e-05
17 *83:16 *123:16 0.00116377
18 *83:16 *123:47 0
19 *83:16 *123:57 0
20 *83:16 *130:141 0.000689818
21 *83:16 *132:68 0
22 *83:16 *132:81 0
23 *83:16 *134:25 1.79747e-05
24 *83:16 *148:45 2.80396e-05
25 *83:16 *156:18 8.73121e-05
26 *83:16 *162:58 0.00192951
27 *83:16 *173:12 3.35885e-06
28 *83:22 *695:A 1.21972e-05
29 *83:22 *164:85 9.58714e-05
30 *83:26 *168:84 0.00264757
31 *695:D *83:22 0.000134975
32 *705:A2 *705:A3 3.45774e-05
33 *16:10 *83:16 2.40479e-05
34 *22:10 *83:16 0.000943483
35 *38:30 *83:16 0
36 *71:22 *83:16 0.0007402
37 *75:25 *83:22 1.10658e-05
38 *75:44 *83:16 6.15719e-05
39 *75:44 *83:22 0.000119372
40 *77:10 *83:16 2.27289e-05
41 *77:10 *83:22 0.000400039
42 *77:14 *83:16 0.000150012
43 *77:124 *83:16 0.000153827
44 *82:141 *83:16 5.94244e-05
45 *82:154 *83:16 0.000567819
*RES
1 *702:Y *83:6 38 
2 *83:6 *83:16 45.4862 
3 *83:16 *83:18 15 
4 *83:18 *83:22 26.5793 
5 *83:22 *83:26 48.5986 
6 *83:26 *705:A3 29.3386 
7 *83:18 *709:A2 23.8493 
*END

*D_NET *84 0.00830464
*CONN
*I *704:B1 I *D sky130_fd_sc_hd__a31o_1
*I *703:Y O *D sky130_fd_sc_hd__inv_2
*CAP
1 *704:B1 0
2 *703:Y 0.00112007
3 *84:10 0.00088434
4 *84:6 0.00200441
5 *84:6 *703:A 2.64616e-05
6 *84:6 *143:51 6.70361e-05
7 *84:6 *145:24 0.00085824
8 *84:6 *154:48 6.62001e-05
9 *84:10 *762:B1 0.000162861
10 *84:10 *118:12 2.26497e-05
11 *84:10 *129:87 0.00038186
12 *84:10 *150:10 0.0014001
13 *84:10 *150:35 0.000351219
14 *84:10 *166:22 0.000495017
15 *84:10 *166:47 0.000262829
16 *26:18 *84:10 0.000201334
*RES
1 *703:Y *84:6 37.9143 
2 *84:6 *84:10 39.4429 
3 *84:10 *704:B1 38 
*END

*D_NET *85 0.00858263
*CONN
*I *705:B1 I *D sky130_fd_sc_hd__o31ai_1
*I *704:X O *D sky130_fd_sc_hd__a31o_1
*CAP
1 *705:B1 0.00087212
2 *704:X 0
3 *85:8 0.00216458
4 *85:6 0.00129246
5 *705:B1 *741:A 5.40337e-05
6 *705:B1 *815:CLK 0.000137651
7 *705:B1 *143:18 1.45372e-05
8 *85:8 *95:37 1.77147e-05
9 *85:8 *95:53 6.14647e-05
10 *85:8 *96:35 0.000540476
11 *85:8 *98:16 0.0015106
12 *85:8 *110:30 6.85548e-05
13 *85:8 *149:8 0.00016914
14 *85:8 *149:24 0.000548504
15 *85:8 *157:30 4.43717e-05
16 *85:8 *166:22 0
17 *85:8 *167:16 6.74513e-06
18 *85:8 *174:8 0.000134401
19 *70:16 *85:8 8.21974e-05
20 *72:6 *705:B1 0.000157533
21 *74:14 *85:8 1.0092e-05
22 *75:56 *85:8 0.000412771
23 *80:45 *85:8 0.000105443
24 *81:14 *85:8 0.000177235
*RES
1 *704:X *85:6 38 
2 *85:6 *85:8 35.0071 
3 *85:8 *705:B1 48.9993 
*END

*D_NET *86 0.0116177
*CONN
*I *707:B I *D sky130_fd_sc_hd__xor2_1
*I *709:B1 I *D sky130_fd_sc_hd__a21oi_1
*I *706:X O *D sky130_fd_sc_hd__and4_1
*CAP
1 *707:B 0
2 *709:B1 0
3 *706:X 0
4 *86:41 0.000117731
5 *86:28 0.000626642
6 *86:14 0.00307016
7 *86:4 0.00256125
8 *86:14 *776:B 5.50106e-05
9 *86:14 *824:CLK 9.67842e-05
10 *86:14 *116:14 0.000178517
11 *86:14 *126:8 0.000280202
12 *86:14 *140:30 0.000299719
13 *86:14 *160:16 0.0010446
14 *86:14 *167:12 0.000700425
15 *86:14 *167:58 4.5051e-05
16 *86:28 *91:14 0.000130663
17 *86:28 *132:68 0
18 *86:28 *173:12 0
19 *86:41 *124:8 0.000135557
20 *86:41 *132:93 0.000110509
21 *86:41 *142:170 9.67842e-05
22 *16:10 *86:28 0.000314977
23 *38:30 *86:14 6.25091e-05
24 *56:16 *86:41 2.60152e-05
25 *77:22 *86:28 0.000729273
26 *77:30 *86:14 0.000908288
27 *77:86 *86:28 2.70366e-05
*RES
1 *706:X *86:4 23 
2 *86:4 *86:14 45.7371 
3 *86:14 *86:28 45.4114 
4 *86:28 *709:B1 23 
5 *86:4 *86:41 33.0036 
6 *86:41 *707:B 23 
*END

*D_NET *87 0.010034
*CONN
*I *709:A1 I *D sky130_fd_sc_hd__a21oi_1
*I *728:A I *D sky130_fd_sc_hd__nand2_1
*I *708:Y O *D sky130_fd_sc_hd__inv_2
*CAP
1 *709:A1 0
2 *728:A 0
3 *708:Y 0
4 *87:23 0.0015781
5 *87:12 0.000801554
6 *87:6 0.00237965
7 *87:12 *789:A 7.37405e-05
8 *87:12 *848:A 0.000137651
9 *87:12 *105:6 0.000105746
10 *87:12 *129:49 2.44913e-05
11 *87:12 *132:6 4.05745e-05
12 *87:12 *132:12 4.9662e-05
13 *87:12 *132:52 1.01436e-05
14 *87:12 *141:24 0.000329718
15 *87:12 *141:37 0.00020367
16 *87:12 *155:26 0.000137368
17 *87:12 *157:14 0.00107854
18 *87:12 *158:16 9.35995e-05
19 *87:23 *689:A 0.00035508
20 *87:23 *695:A 0.000116292
21 *87:23 *762:A1 7.40352e-05
22 *87:23 *770:A 9.87385e-06
23 *87:23 *770:D 5.3304e-05
24 *87:23 *818:CLK 9.41704e-05
25 *87:23 *110:16 0.00034874
26 *87:23 *110:30 4.67488e-05
27 *87:23 *132:52 0.00080511
28 *87:23 *132:56 8.00504e-05
29 *87:23 *150:24 1.21972e-05
30 *87:23 *157:14 0.000210936
31 *43:44 *87:12 0.000762649
32 *70:12 *87:23 2.05597e-05
*RES
1 *708:Y *87:6 38 
2 *87:6 *87:12 38.49 
3 *87:12 *728:A 23 
4 *87:6 *87:23 41.7629 
5 *87:23 *709:A1 23 
*END

*D_NET *88 0.00274685
*CONN
*I *712:A I *D sky130_fd_sc_hd__nor2_1
*I *710:Y O *D sky130_fd_sc_hd__a21oi_1
*CAP
1 *712:A 0.000343831
2 *710:Y 0.000409271
3 *88:16 0.000753102
4 *712:A *94:24 0
5 *712:A *107:18 0
6 *712:A *166:97 0.000576033
7 *88:16 *94:24 0
8 *88:16 *142:41 0.000229207
9 *88:16 *143:26 0.000104141
10 *88:16 *157:30 0.000144494
11 *88:16 *166:97 8.55413e-05
12 *58:8 *88:16 0.000101226
*RES
1 *710:Y *88:16 47.0936 
2 *88:16 *712:A 45.8921 
*END

*D_NET *89 0.0176236
*CONN
*I *712:B I *D sky130_fd_sc_hd__nor2_1
*I *714:A2 I *D sky130_fd_sc_hd__o21ba_1
*I *711:X O *D sky130_fd_sc_hd__and3_1
*CAP
1 *712:B 0.00035483
2 *714:A2 8.14328e-05
3 *711:X 8.10432e-05
4 *89:36 0.000700628
5 *89:28 0.00118132
6 *89:20 0.0018281
7 *89:14 0.0017093
8 *89:8 0.000879204
9 *712:B *823:CLK 0.000148736
10 *712:B *94:14 0.00085975
11 *712:B *131:16 0.000270263
12 *714:A2 *714:B1_N 9.64943e-05
13 *714:A2 *123:57 0.000229793
14 *714:A2 *168:60 7.40718e-05
15 *89:8 *823:CLK 0.000192276
16 *89:14 *169:37 0.000159544
17 *89:14 *175:12 0.000971601
18 *89:20 *699:B 5.24329e-05
19 *89:20 *96:20 0.000625242
20 *89:20 *96:35 0.0014804
21 *89:20 *110:130 0.000750105
22 *89:20 *142:136 0.000239243
23 *89:20 *148:58 0.00056885
24 *89:20 *149:34 0.00081157
25 *89:20 *149:51 0.000220584
26 *89:20 *173:25 0.000110913
27 *89:28 *689:A 3.7122e-06
28 *89:28 *116:53 0.000127184
29 *89:28 *126:16 9.85897e-06
30 *89:28 *129:102 1.59094e-05
31 *89:28 *129:109 9.38112e-06
32 *89:28 *158:20 1.61361e-05
33 *89:28 *158:37 0.000218509
34 *89:36 *814:CLK 0.000188769
35 *89:36 *136:32 0.000540656
36 *89:36 *151:12 0.00054458
37 *89:36 *158:37 0.000135037
38 *818:RESET_B *89:20 0.000219253
39 *820:RESET_B *89:28 4.05755e-05
40 *18:12 *89:8 7.31905e-05
41 *34:14 *89:20 3.11878e-05
42 *36:10 *89:14 5.3304e-05
43 *36:18 *712:B 0.00015795
44 *36:18 *89:8 3.47781e-05
45 *49:6 *89:28 9.92279e-05
46 *75:66 *712:B 0.000348161
47 *82:20 *89:14 7.8514e-05
*RES
1 *711:X *89:8 40.61 
2 *89:8 *89:14 41.1029 
3 *89:14 *89:20 38.9429 
4 *89:20 *89:28 38.6793 
5 *89:28 *89:36 42.9257 
6 *89:36 *714:A2 41.0243 
7 *89:8 *712:B 49.9314 
*END

*D_NET *90 0.0151845
*CONN
*I *716:B1 I *D sky130_fd_sc_hd__o2bb2a_1
*I *714:B1_N I *D sky130_fd_sc_hd__o21ba_1
*I *713:X O *D sky130_fd_sc_hd__and3_1
*CAP
1 *716:B1 0
2 *714:B1_N 6.97168e-05
3 *713:X 0
4 *90:33 0.00136656
5 *90:25 0.00201052
6 *90:12 0.00143439
7 *90:6 0.000720711
8 *714:B1_N *123:57 4.05745e-05
9 *714:B1_N *168:60 0.000182049
10 *90:12 *713:A 0.000167449
11 *90:12 *123:57 0.000149626
12 *90:12 *129:129 0.000184857
13 *90:12 *152:63 0.000781738
14 *90:12 *153:33 0.000393068
15 *90:12 *168:60 0.000302325
16 *90:25 *151:12 0.00142869
17 *90:25 *153:64 7.31043e-06
18 *90:33 *688:B 0.000139346
19 *90:33 *716:B2 5.81931e-05
20 *90:33 *91:54 2.87971e-05
21 *90:33 *128:34 0.000601244
22 *90:33 *128:43 0.00029315
23 *90:33 *128:54 4.08664e-05
24 *90:33 *151:12 2.69046e-05
25 *90:33 *152:50 3.24251e-06
26 *90:33 *153:64 0.00122053
27 *90:33 *154:27 0.00010851
28 *714:A2 *714:B1_N 9.64943e-05
29 *813:RESET_B *90:33 1.96101e-05
30 *43:20 *90:25 0.00139109
31 *50:28 *90:33 0.00114334
32 *57:10 *90:12 0.000259341
33 *82:119 *90:33 0.00051424
*RES
1 *713:X *90:6 38 
2 *90:6 *90:12 34.4714 
3 *90:12 *714:B1_N 25.0507 
4 *90:12 *90:25 35.7868 
5 *90:25 *90:33 49.7689 
6 *90:33 *716:B1 23 
*END

*D_NET *91 0.0233572
*CONN
*I *718:A1 I *D sky130_fd_sc_hd__a21o_1
*I *716:A1_N I *D sky130_fd_sc_hd__o2bb2a_1
*I *715:X O *D sky130_fd_sc_hd__and3_1
*CAP
1 *718:A1 0
2 *716:A1_N 0
3 *715:X 0.000398839
4 *91:73 0.00153367
5 *91:54 0.0032679
6 *91:40 0.00521715
7 *91:30 0.00155284
8 *91:22 0.0023565
9 *91:14 0.00161808
10 *91:14 *715:A 0.000268339
11 *91:22 *133:82 0.000510479
12 *91:22 *147:26 0.00124196
13 *91:22 *159:37 0.00154938
14 *91:30 *130:107 6.27958e-05
15 *91:30 *136:32 1.59094e-05
16 *91:30 *136:49 8.06804e-06
17 *91:30 *147:45 0.00018015
18 *91:40 *95:75 2.24608e-05
19 *91:40 *123:57 0
20 *91:54 *716:B2 8.08729e-06
21 *91:54 *95:25 0
22 *91:54 *103:28 0.000684755
23 *91:54 *112:34 0
24 *91:54 *119:23 0.000109559
25 *91:54 *123:71 0.000371373
26 *91:54 *141:79 0.000144743
27 *91:54 *141:111 0.00011192
28 *91:54 *142:170 0.000137058
29 *91:73 *772:B1 2.19315e-05
30 *91:73 *825:CLK 2.39911e-05
31 *91:73 *95:75 4.82745e-05
32 *91:73 *112:34 0
33 *91:73 *123:71 0.000766696
34 *91:73 *134:31 9.22881e-05
35 *713:C *91:73 5.3304e-05
36 *24:16 *91:30 0
37 *29:16 *91:14 0.000104066
38 *30:8 *91:54 5.04995e-05
39 *43:8 *91:30 0
40 *49:10 *91:54 0.000172629
41 *60:24 *91:73 0
42 *64:22 *91:40 0.000260106
43 *73:12 *91:54 0.000224409
44 *82:141 *91:40 7.57281e-06
45 *86:28 *91:14 0.000130663
46 *90:33 *91:54 2.87971e-05
*RES
1 *715:X *91:14 44.5043 
2 *91:14 *91:22 40.5614 
3 *91:22 *91:30 43.2364 
4 *91:30 *91:40 32.3645 
5 *91:40 *91:54 39.592 
6 *91:54 *716:A1_N 23 
7 *91:40 *91:73 35.7237 
8 *91:73 *718:A1 23 
*END

*D_NET *92 0.0230832
*CONN
*I *719:A I *D sky130_fd_sc_hd__and2_1
*I *721:B I *D sky130_fd_sc_hd__xnor2_1
*I *717:Y O *D sky130_fd_sc_hd__nand2_1
*CAP
1 *719:A 0.000307539
2 *721:B 0
3 *717:Y 0.000449505
4 *92:49 0.00106147
5 *92:38 0.00299051
6 *92:24 0.00468788
7 *92:14 0.00313231
8 *92:10 0.00113051
9 *719:A *164:16 0.000513112
10 *92:10 *738:B1 0.000140494
11 *92:10 *144:18 0.000139537
12 *92:10 *145:55 0.000111106
13 *92:14 *174:12 0.00105752
14 *92:24 *96:35 6.98751e-05
15 *92:24 *116:59 0
16 *92:24 *126:49 9.64943e-05
17 *92:24 *156:30 0
18 *92:24 *156:45 0.00013323
19 *92:24 *174:12 0.00125763
20 *92:38 *755:B 9.07614e-05
21 *92:38 *829:CLK 2.26497e-05
22 *92:38 *114:26 0.00153479
23 *92:38 *118:22 0.000756608
24 *92:38 *149:24 0.000753494
25 *92:38 *158:16 0.000125494
26 *92:38 *161:67 1.20476e-05
27 *92:38 *162:29 0
28 *92:38 *162:41 0
29 *92:49 *93:24 0.000109447
30 *92:49 *95:25 0
31 *92:49 *95:75 0
32 *92:49 *130:18 0
33 *92:49 *159:10 0.00034057
34 *92:49 *159:21 0.000599079
35 *717:B *92:10 1.96141e-05
36 *818:RESET_B *92:24 0.000300797
37 *819:RESET_B *92:38 0
38 *822:RESET_B *719:A 0.000484124
39 *25:10 *92:49 7.28571e-05
40 *38:18 *92:49 5.58564e-05
41 *45:32 *92:24 2.55744e-05
42 *61:10 *92:49 0.000161756
43 *66:8 *92:49 0
44 *66:14 *719:A 0.000251417
45 *80:14 *92:24 8.75369e-05
46 *80:45 *92:38 0
*RES
1 *717:Y *92:10 45.3743 
2 *92:10 *92:14 27.0557 
3 *92:14 *92:24 42.8006 
4 *92:24 *92:38 48.156 
5 *92:38 *721:B 23 
6 *92:14 *92:49 47.4 
7 *92:49 *719:A 33.6264 
*END

*D_NET *93 0.014871
*CONN
*I *719:B I *D sky130_fd_sc_hd__and2_1
*I *718:X O *D sky130_fd_sc_hd__a21o_1
*CAP
1 *719:B 0
2 *718:X 0.000154963
3 *93:24 0.00357329
4 *93:12 0.00372825
5 *93:12 *718:B1 0.000120728
6 *93:12 *825:CLK 0.000120728
7 *93:12 *134:31 8.84148e-05
8 *93:24 *104:22 2.26406e-05
9 *93:24 *112:34 0.00433673
10 *93:24 *152:35 0
11 *93:24 *159:21 0.000251004
12 *60:24 *93:24 0.00236482
13 *92:49 *93:24 0.000109447
*RES
1 *718:X *93:12 47.9144 
2 *93:12 *93:24 37.0275 
3 *93:24 *719:B 38 
*END

*D_NET *94 0.00855296
*CONN
*I *720:A I *D sky130_fd_sc_hd__buf_1
*I *719:X O *D sky130_fd_sc_hd__and2_1
*CAP
1 *720:A 0
2 *719:X 0.000514306
3 *94:24 0.000719812
4 *94:14 0.00160728
5 *94:10 0.00140177
6 *94:10 *123:30 0.000133316
7 *94:10 *135:62 2.35393e-05
8 *94:10 *164:16 0.000513126
9 *94:14 *771:B2 0.000221084
10 *94:14 *131:16 0.000108264
11 *94:24 *106:44 0.000229113
12 *94:24 *107:18 0.00109835
13 *94:24 *143:26 0.000109522
14 *712:A *94:24 0
15 *712:B *94:14 0.00085975
16 *21:20 *94:10 8.4047e-05
17 *33:16 *94:14 0.000533982
18 *75:66 *94:14 0.000374573
19 *82:58 *94:24 2.11157e-05
20 *88:16 *94:24 0
*RES
1 *719:X *94:10 45.7679 
2 *94:10 *94:14 36.1079 
3 *94:14 *94:24 47.4621 
4 *94:24 *720:A 23 
*END

*D_NET *95 0.0288279
*CONN
*I *726:B I *D sky130_fd_sc_hd__nor2_1
*I *728:B I *D sky130_fd_sc_hd__nand2_1
*I *731:A2 I *D sky130_fd_sc_hd__a21boi_1
*I *723:B I *D sky130_fd_sc_hd__nand2_1
*I *722:Y O *D sky130_fd_sc_hd__nor2_2
*CAP
1 *726:B 0
2 *728:B 0
3 *731:A2 0.00015552
4 *723:B 0
5 *722:Y 0
6 *95:75 0.0020279
7 *95:53 0.00173273
8 *95:37 0.00380598
9 *95:25 0.00534074
10 *95:8 0.00177596
11 *95:6 0.000691889
12 *731:A2 *106:58 0.000216479
13 *731:A2 *166:8 0.000100061
14 *95:8 *144:30 0.00118618
15 *95:8 *164:10 0.000252701
16 *95:8 *175:18 0
17 *95:25 *130:14 0.000164858
18 *95:25 *130:18 0.000204653
19 *95:25 *144:30 3.90542e-05
20 *95:37 *113:24 0
21 *95:37 *141:64 0.000633289
22 *95:37 *146:45 1.79829e-05
23 *95:37 *152:35 0.00022324
24 *95:37 *166:22 1.15883e-05
25 *95:37 *174:8 2.33476e-05
26 *95:53 *98:16 2.54646e-05
27 *95:53 *99:20 0.000174506
28 *95:53 *117:18 6.92184e-05
29 *95:53 *141:64 0
30 *95:53 *143:18 2.60152e-05
31 *95:53 *146:20 0
32 *95:53 *158:12 0.000194008
33 *95:53 *165:10 0.00014512
34 *95:53 *166:14 0
35 *95:53 *166:22 0.000295351
36 *95:53 *166:97 0
37 *95:75 *825:CLK 8.5772e-05
38 *95:75 *112:34 0.000103446
39 *95:75 *123:57 2.29192e-05
40 *95:75 *130:12 0.000825807
41 *95:75 *130:14 0.00038008
42 *95:75 *133:53 4.34078e-05
43 AN[0] *95:8 0
44 seg[6] *95:8 0
45 *833:RESET_B *95:37 0.000803851
46 *6:25 *95:53 6.77227e-05
47 *21:20 *95:37 0.000778228
48 *32:14 *95:75 0.00082903
49 *33:10 *95:53 0.00031794
50 *61:10 *95:75 0.00356461
51 *64:12 *95:8 0
52 *64:12 *95:25 0
53 *68:12 *95:75 0.000658308
54 *77:49 *95:75 0.000124469
55 *77:124 *95:53 4.79747e-05
56 *80:18 *95:53 0
57 *80:24 *731:A2 0.000223901
58 *81:61 *95:75 8.43186e-05
59 *82:20 *95:53 8.52094e-06
60 *82:141 *95:75 0.000173834
61 *85:8 *95:37 1.77147e-05
62 *85:8 *95:53 6.14647e-05
63 *91:40 *95:75 2.24608e-05
64 *91:54 *95:25 0
65 *91:73 *95:75 4.82745e-05
66 *92:49 *95:25 0
67 *92:49 *95:75 0
*RES
1 *722:Y *95:6 38 
2 *95:6 *95:8 17.7521 
3 *95:8 *723:B 38 
4 *95:8 *95:25 23.5215 
5 *95:25 *95:37 22.2919 
6 *95:37 *95:53 36.0978 
7 *95:53 *731:A2 44.5043 
8 *95:37 *728:B 38 
9 *95:25 *95:75 59.8332 
10 *95:75 *726:B 38 
*END

*D_NET *96 0.0191267
*CONN
*I *727:B1 I *D sky130_fd_sc_hd__o21a_1
*I *724:B I *D sky130_fd_sc_hd__nor2_1
*I *723:Y O *D sky130_fd_sc_hd__nand2_1
*CAP
1 *727:B1 0.000307042
2 *724:B 0
3 *723:Y 0.00178983
4 *96:35 0.00211984
5 *96:20 0.000700147
6 *96:12 0.00269764
7 *96:8 0.00197452
8 *727:B1 *727:A2 0.000100061
9 *727:B1 *784:A 0.000858718
10 *727:B1 *142:20 0.000135037
11 *727:B1 *145:14 0.000328846
12 *96:8 *723:A 1.94812e-05
13 *96:8 *827:CLK 7.59161e-05
14 *96:8 *146:45 5.85822e-06
15 *96:8 *154:8 6.44472e-05
16 *96:12 *104:12 0.000435371
17 *96:12 *146:14 0.000259968
18 *96:12 *146:45 4.95879e-05
19 *96:20 *768:C 1.76149e-05
20 *96:20 *768:D 2.08501e-05
21 *96:20 *97:8 0.000147656
22 *96:20 *110:130 8.99313e-05
23 *96:20 *115:12 2.2385e-05
24 *96:20 *148:58 0.000871055
25 *96:20 *149:34 0.000103702
26 *96:35 *118:22 0
27 *96:35 *148:58 0.00147118
28 *96:35 *156:45 0.000131856
29 *96:35 *162:41 0.000113946
30 *827:D *96:8 0.000157002
31 *835:RESET_B *96:8 0.000108242
32 *70:16 *96:35 0.000537964
33 *80:14 *96:35 0.000695047
34 *85:8 *96:35 0.000540476
35 *89:20 *96:20 0.000625242
36 *89:20 *96:35 0.0014804
37 *92:24 *96:35 6.98751e-05
*RES
1 *723:Y *96:8 45.0814 
2 *96:8 *96:12 20.3857 
3 *96:12 *96:20 32.1514 
4 *96:20 *724:B 23 
5 *96:12 *96:35 46.0457 
6 *96:35 *727:B1 47.6736 
*END

*D_NET *97 0.0136104
*CONN
*I *729:C I *D sky130_fd_sc_hd__or3_1
*I *725:C1 I *D sky130_fd_sc_hd__a2111o_1
*I *724:Y O *D sky130_fd_sc_hd__nor2_1
*CAP
1 *729:C 0
2 *725:C1 0
3 *724:Y 3.16531e-05
4 *97:36 0.000532843
5 *97:26 0.00178739
6 *97:16 0.00125454
7 *97:14 0.0013963
8 *97:8 0.00142795
9 *97:8 *768:C 5.07601e-05
10 *97:14 *724:A 9.86551e-06
11 *97:14 *110:122 0.000425833
12 *97:14 *110:164 0.000316306
13 *97:14 *115:12 0.000186833
14 *97:14 *123:30 0.000459125
15 *97:14 *135:62 0
16 *97:14 *144:72 0.000222123
17 *97:14 *145:18 0.000172789
18 *97:14 *145:24 0.000155519
19 *97:14 *148:58 0.00116513
20 *97:14 *152:16 0.000114092
21 *97:14 *152:35 0.00013959
22 *97:14 *154:44 0.000582421
23 *97:26 *820:CLK 0.000138607
24 *97:26 *109:18 0.000457301
25 *97:26 *139:35 0.000186684
26 *97:26 *145:18 0.000129757
27 *97:26 *145:72 0.000327545
28 *97:26 *158:20 0.000386419
29 *97:26 *166:47 9.62024e-05
30 *97:36 *725:A2 4.34876e-05
31 *97:36 *725:D1 5.3304e-05
32 *97:36 *143:72 0.00030734
33 *97:36 *167:16 0.000112604
34 *97:36 *173:6 0.000101988
35 *97:36 *173:25 6.55011e-05
36 *21:20 *97:14 6.91284e-05
37 *75:44 *97:36 0.000435635
38 *75:56 *97:36 0.000110373
39 *81:26 *97:36 9.78729e-06
40 *96:20 *97:8 0.000147656
*RES
1 *724:Y *97:8 39.5743 
2 *97:8 *97:14 38.2386 
3 *97:14 *97:16 15 
4 *97:16 *97:26 49.6371 
5 *97:26 *97:36 42.2007 
6 *97:36 *725:C1 23 
7 *97:16 *729:C 23 
*END

*D_NET *98 0.00951757
*CONN
*I *730:A I *D sky130_fd_sc_hd__clkbuf_1
*I *729:X O *D sky130_fd_sc_hd__or3_1
*CAP
1 *730:A 0.000774065
2 *729:X 0.000782135
3 *98:16 0.00156952
4 *98:12 0.00157759
5 *730:A *104:12 0.000108678
6 *730:A *146:20 4.34973e-05
7 *98:12 *110:16 5.56356e-05
8 *98:12 *110:122 0.000139692
9 *98:12 *166:47 0.000593163
10 *98:16 *117:18 6.86505e-05
11 *98:16 *143:18 6.48142e-05
12 *98:16 *162:41 0.00010083
13 *837:D *98:12 2.45549e-06
14 *75:56 *98:16 0.000268096
15 *75:83 *730:A 0.00034501
16 *80:18 *98:16 0.00148767
17 *85:8 *98:16 0.0015106
18 *95:53 *98:16 2.54646e-05
*RES
1 *729:X *98:12 49.2686 
2 *98:12 *98:16 39.795 
3 *98:16 *730:A 35.5321 
*END

*D_NET *99 0.0160229
*CONN
*I *735:A I *D sky130_fd_sc_hd__and2_1
*I *737:B I *D sky130_fd_sc_hd__xnor2_1
*I *733:Y O *D sky130_fd_sc_hd__nand2_1
*CAP
1 *735:A 2.0995e-05
2 *737:B 7.88639e-05
3 *733:Y 0.00037169
4 *99:20 0.00133584
5 *99:18 0.00129273
6 *99:14 0.00136748
7 *99:8 0.00168242
8 *735:A *139:35 1.14154e-05
9 *99:8 *733:B 0.000133401
10 *99:8 *109:14 8.48502e-06
11 *99:8 *135:14 4.67488e-05
12 *99:14 *689:A 0.000146487
13 *99:14 *101:8 0.000874202
14 *99:14 *123:47 4.51887e-05
15 *99:14 *133:10 8.39918e-05
16 *99:14 *133:82 4.62887e-05
17 *99:14 *139:35 0.000979136
18 *99:14 *145:72 2.55191e-05
19 *99:14 *148:58 0.000623695
20 *99:14 *163:22 0.0011771
21 *99:18 *139:35 2.93845e-05
22 *99:20 *745:B 2.23754e-05
23 *99:20 *100:16 8.99174e-05
24 *99:20 *111:12 0.000237592
25 *99:20 *111:14 0.000136395
26 *99:20 *158:12 0.0010202
27 *99:20 *165:42 0.00139535
28 *33:10 *737:B 2.50118e-05
29 *36:10 *737:B 0.000117069
30 *53:12 *99:14 0.000111852
31 *82:20 *737:B 0.000183544
32 *82:20 *99:20 0.000467852
33 *82:46 *99:20 0.000799557
34 *82:67 *99:20 0.000860652
35 *95:53 *99:20 0.000174506
*RES
1 *733:Y *99:8 42.4329 
2 *99:8 *99:14 46.61 
3 *99:14 *99:18 15.6214 
4 *99:18 *99:20 39.2329 
5 *99:20 *737:B 40.5271 
6 *99:14 *735:A 23.4971 
*END

*D_NET *100 0.00451991
*CONN
*I *735:B I *D sky130_fd_sc_hd__and2_1
*I *734:X O *D sky130_fd_sc_hd__or2_1
*CAP
1 *735:B 0
2 *734:X 0.000221879
3 *100:16 0.000601973
4 *100:8 0.000823852
5 *100:8 *107:10 0.000141183
6 *100:8 *132:20 6.55954e-05
7 *100:16 *111:12 0.000211241
8 *100:16 *111:14 0.0003497
9 *100:16 *137:55 0.000963054
10 *100:16 *167:16 0.000420438
11 *82:67 *100:16 0.000631073
12 *99:20 *100:16 8.99174e-05
*RES
1 *734:X *100:8 41.0036 
2 *100:8 *100:16 34.9271 
3 *100:16 *735:B 23 
*END

*D_NET *101 0.00754924
*CONN
*I *736:A I *D sky130_fd_sc_hd__clkbuf_1
*I *735:X O *D sky130_fd_sc_hd__and2_1
*CAP
1 *736:A 0
2 *735:X 0.000805397
3 *101:14 0.00100231
4 *101:8 0.0018077
5 *101:14 *820:CLK 0.000313795
6 *101:14 *110:16 4.31054e-05
7 *101:14 *135:62 0.00196184
8 *101:14 *141:37 0.000348035
9 *101:14 *143:90 2.93747e-05
10 *101:14 *150:48 0.000155369
11 *101:14 *157:14 8.71139e-05
12 *80:10 *101:14 1.63828e-05
13 *82:98 *101:14 0.000104611
14 *99:14 *101:8 0.000874202
*RES
1 *735:X *101:8 48.15 
2 *101:8 *101:14 42.8814 
3 *101:14 *736:A 23 
*END

*D_NET *102 0.00566614
*CONN
*I *739:B I *D sky130_fd_sc_hd__and2b_1
*I *738:X O *D sky130_fd_sc_hd__a31o_1
*CAP
1 *739:B 0
2 *738:X 0.000458178
3 *102:12 0.00078581
4 *102:8 0.00124399
5 *102:8 *738:B1 0.00056204
6 *102:12 *103:12 2.26406e-05
7 *102:12 *103:28 0.000267688
8 *102:12 *118:26 0.000485895
9 *102:12 *121:10 6.03228e-05
10 *22:12 *102:12 0.00177958
*RES
1 *738:X *102:8 44.3386 
2 *102:8 *102:12 39.0907 
3 *102:12 *739:B 23 
*END

*D_NET *103 0.0165867
*CONN
*I *740:A I *D sky130_fd_sc_hd__clkbuf_1
*I *739:X O *D sky130_fd_sc_hd__and2b_1
*CAP
1 *740:A 0
2 *739:X 8.12169e-05
3 *103:28 0.00606239
4 *103:12 0.0061436
5 *103:12 *118:26 9.85586e-06
6 *103:28 *112:34 0
7 *103:28 *118:26 0.000233911
8 *103:28 *119:23 0.000239433
9 *103:28 *128:18 0.000137335
10 *103:28 *142:111 1.68817e-05
11 *103:28 *145:72 0.000232703
12 *103:28 *149:24 0
13 *103:28 *150:24 0.000572303
14 *103:28 *162:58 0.000679117
15 *103:28 *165:42 3.33733e-05
16 *103:28 *172:12 4.70939e-05
17 *18:20 *103:28 0.000715447
18 *22:12 *103:28 0.000260715
19 *77:14 *103:28 1.36167e-05
20 *77:124 *103:28 4.12427e-06
21 *82:119 *103:28 0.000123119
22 *83:16 *103:28 5.34733e-06
23 *91:54 *103:28 0.000684755
24 *102:12 *103:12 2.26406e-05
25 *102:12 *103:28 0.000267688
*RES
1 *739:X *103:12 46.42 
2 *103:12 *103:28 39.4777 
3 *103:28 *740:A 38 
*END

*D_NET *104 0.00899824
*CONN
*I *745:B I *D sky130_fd_sc_hd__nor2_1
*I *743:A I *D sky130_fd_sc_hd__nor2_1
*I *741:X O *D sky130_fd_sc_hd__and2_1
*CAP
1 *745:B 0.000351325
2 *743:A 0
3 *741:X 0
4 *104:22 0.000668576
5 *104:12 0.00250642
6 *104:6 0.00218917
7 *745:B *130:65 5.58003e-05
8 *745:B *132:20 5.58003e-05
9 *745:B *158:12 0.000620864
10 *745:B *165:10 0.000304862
11 *745:B *165:21 0.000366537
12 *745:B *165:42 1.13812e-05
13 *104:12 *833:CLK 2.93845e-05
14 *104:12 *146:14 0.000236453
15 *104:12 *146:20 5.50672e-05
16 *104:12 *158:12 8.27285e-05
17 *104:12 *165:10 8.85189e-05
18 *104:22 *758:B 6.10551e-06
19 *104:22 *105:14 6.36838e-05
20 *104:22 *129:30 0
21 *730:A *104:12 0.000108678
22 *35:6 *104:22 7.51453e-06
23 *40:14 *104:22 0.000708986
24 *45:18 *104:22 0
25 *93:24 *104:22 2.26406e-05
26 *96:12 *104:12 0.000435371
27 *99:20 *745:B 2.23754e-05
*RES
1 *741:X *104:6 38 
2 *104:6 *104:12 38.2621 
3 *104:12 *104:22 43.2364 
4 *104:22 *743:A 23 
5 *104:6 *745:B 47.9221 
*END

*D_NET *105 0.00731675
*CONN
*I *743:B I *D sky130_fd_sc_hd__nor2_1
*I *742:Y O *D sky130_fd_sc_hd__nor2_1
*CAP
1 *743:B 0
2 *742:Y 0.00138922
3 *105:14 0.000715028
4 *105:6 0.00210425
5 *105:6 *789:A 8.24209e-06
6 *105:6 *848:A 0.000137651
7 *105:6 *155:26 0.00114741
8 *105:14 *787:A 0.000273958
9 *105:14 *126:61 0
10 *105:14 *146:45 0.000302311
11 *742:B *105:6 1.83408e-05
12 *35:6 *105:14 5.82853e-05
13 *40:14 *105:14 0.000992623
14 *87:12 *105:6 0.000105746
15 *104:22 *105:14 6.36838e-05
*RES
1 *742:Y *105:6 41.7257 
2 *105:6 *105:14 46.965 
3 *105:14 *743:B 23 
*END

*D_NET *106 0.0252427
*CONN
*I *751:A2 I *D sky130_fd_sc_hd__a21o_1
*I *746:A I *D sky130_fd_sc_hd__nor2_1
*I *747:B I *D sky130_fd_sc_hd__xor2_1
*I *744:X O *D sky130_fd_sc_hd__and3_2
*CAP
1 *751:A2 0.000752074
2 *746:A 5.51621e-05
3 *747:B 0
4 *744:X 0.000128307
5 *106:58 0.00249013
6 *106:54 0.00281764
7 *106:50 0.000799065
8 *106:44 0.00155929
9 *106:26 0.00231374
10 *106:14 0.00106337
11 *106:8 0.000772907
12 *746:A *107:18 0.000100069
13 *746:A *175:12 7.43209e-05
14 *751:A2 *751:A1 5.50049e-05
15 *751:A2 *751:B1 0.000164704
16 *751:A2 *144:87 0.000344032
17 *751:A2 *167:30 0.000303448
18 *106:14 *725:A2 4.05745e-05
19 *106:14 *145:91 1.89075e-05
20 *106:14 *164:85 0.000136486
21 *106:14 *170:16 0
22 *106:14 *173:12 0
23 *106:26 *144:87 6.17437e-06
24 *106:26 *145:14 0.000222104
25 *106:26 *145:91 0.000345564
26 *106:26 *164:85 0.000371084
27 *106:44 *734:B 6.09335e-06
28 *106:44 *107:18 8.52094e-06
29 *106:44 *130:65 1.30363e-05
30 *106:44 *132:20 0.000167275
31 *106:44 *143:34 2.0974e-05
32 *106:44 *143:51 0.000218838
33 *106:50 *107:18 0.000732476
34 *106:50 *142:58 1.62615e-05
35 *106:50 *143:34 4.67998e-05
36 *106:50 *175:8 0.000498224
37 *106:54 *731:A1 3.918e-05
38 *106:54 *107:18 3.69001e-05
39 *106:54 *110:151 0
40 *106:54 *142:58 7.53597e-05
41 *106:54 *166:97 0
42 *106:54 *176:8 1.13812e-05
43 *106:58 *731:A1 1.24362e-05
44 *106:58 *166:88 4.84155e-05
45 *731:A2 *106:58 0.000216479
46 *823:RESET_B *106:58 5.32454e-05
47 *28:12 *106:26 0.000308652
48 *28:12 *106:50 0.000498769
49 *31:14 *106:14 0.00141269
50 *31:14 *106:44 0.000743751
51 *37:10 *106:58 0.0023206
52 *75:19 *106:8 0.000188934
53 *75:19 *106:14 0.00139
54 *76:12 *106:26 0.000658608
55 *79:10 *106:50 0.00014411
56 *80:24 *106:58 2.58816e-05
57 *81:26 *106:14 5.50106e-05
58 *82:58 *106:44 0.00011057
59 *94:24 *106:44 0.000229113
*RES
1 *744:X *106:8 40.0507 
2 *106:8 *106:14 37.4957 
3 *106:14 *106:26 45.1629 
4 *106:26 *106:44 47.2756 
5 *106:44 *106:50 15.1732 
6 *106:50 *106:54 21.8357 
7 *106:54 *106:58 40.5379 
8 *106:58 *747:B 23 
9 *106:50 *746:A 39.5743 
10 *106:26 *751:A2 36.0293 
*END

*D_NET *107 0.00571532
*CONN
*I *746:B I *D sky130_fd_sc_hd__nor2_1
*I *745:Y O *D sky130_fd_sc_hd__nor2_1
*CAP
1 *746:B 0
2 *745:Y 0.000312756
3 *107:18 0.000756756
4 *107:10 0.00106951
5 *107:10 *132:20 0.000482812
6 *107:10 *145:34 0.000138859
7 *107:18 *143:34 0.000446787
8 *107:18 *166:97 0
9 *107:18 *175:12 1.10658e-05
10 *712:A *107:18 0
11 *746:A *107:18 0.000100069
12 *31:8 *107:10 0.000184293
13 *36:10 *107:18 3.22051e-05
14 *79:10 *107:18 0.000139647
15 *82:58 *107:18 2.31209e-05
16 *94:24 *107:18 0.00109835
17 *100:8 *107:10 0.000141183
18 *106:44 *107:18 8.52094e-06
19 *106:50 *107:18 0.000732476
20 *106:54 *107:18 3.69001e-05
*RES
1 *745:Y *107:10 45.7886 
2 *107:10 *107:18 37.765 
3 *107:18 *746:B 23 
*END

*D_NET *108 0.00647447
*CONN
*I *749:C I *D sky130_fd_sc_hd__and3_1
*I *748:X O *D sky130_fd_sc_hd__and3_1
*CAP
1 *749:C 0
2 *748:X 0.000317385
3 *108:14 0.000380885
4 *108:6 0.00069827
5 *108:6 *112:22 0.000108995
6 *108:6 *130:158 1.57659e-05
7 *108:6 *141:94 0.00183869
8 *108:6 *165:81 0.000456792
9 *108:6 *167:60 0.00232773
10 *108:14 *116:74 0.000279471
11 *108:14 *147:45 0
12 *108:14 *161:40 2.07921e-05
13 *108:14 *164:104 1.01436e-05
14 *108:14 *166:71 0
15 *108:14 *167:58 0
16 *825:RESET_B *108:14 1.95448e-05
*RES
1 *748:X *108:6 47.9193 
2 *108:6 *108:14 37.0636 
3 *108:14 *749:C 23 
*END

*D_NET *109 0.00888208
*CONN
*I *763:B I *D sky130_fd_sc_hd__nand2_1
*I *750:A I *D sky130_fd_sc_hd__buf_2
*I *749:X O *D sky130_fd_sc_hd__and3_1
*CAP
1 *763:B 0
2 *750:A 1.94238e-05
3 *749:X 0.000248702
4 *109:18 0.00094553
5 *109:14 0.00154183
6 *109:8 0.000864425
7 *750:A *820:CLK 5.3304e-05
8 *750:A *166:47 5.56356e-05
9 *109:8 *161:40 0.000361183
10 *109:14 *733:B 1.32314e-05
11 *109:14 *116:20 0.000182196
12 *109:14 *130:107 4.05745e-05
13 *109:14 *133:18 3.26321e-05
14 *109:14 *135:14 0.00026025
15 *109:14 *136:49 0.000221997
16 *109:14 *162:8 0.000323967
17 *109:14 *167:58 0.000686235
18 *109:18 *110:43 1.95592e-05
19 *109:18 *110:58 0.000376856
20 *109:18 *113:10 0.000266822
21 *109:18 *119:8 0.000532312
22 *109:18 *135:60 5.92708e-05
23 *109:18 *135:62 0.000858436
24 *109:18 *139:76 1.9455e-05
25 *109:18 *145:72 7.45476e-05
26 *109:18 *156:18 1.20381e-05
27 *109:18 *163:22 6.48484e-05
28 *53:12 *109:14 0.000281031
29 *97:26 *109:18 0.000457301
30 *99:8 *109:14 8.48502e-06
*RES
1 *749:X *109:8 41.9564 
2 *109:8 *109:14 31.6543 
3 *109:14 *109:18 37.6821 
4 *109:18 *750:A 38.6214 
5 *109:14 *763:B 23 
*END

*D_NET *110 0.0375454
*CONN
*I *761:A2 I *D sky130_fd_sc_hd__a21boi_1
*I *771:A2_N I *D sky130_fd_sc_hd__o2bb2a_1
*I *760:A3 I *D sky130_fd_sc_hd__a31o_1
*I *768:D I *D sky130_fd_sc_hd__and4_1
*I *772:A2 I *D sky130_fd_sc_hd__a21oi_1
*I *767:D I *D sky130_fd_sc_hd__and4_1
*I *752:A_N I *D sky130_fd_sc_hd__and2b_1
*I *755:B I *D sky130_fd_sc_hd__nand2_1
*I *754:B I *D sky130_fd_sc_hd__nor2_1
*I *762:A2 I *D sky130_fd_sc_hd__a21oi_1
*I *750:X O *D sky130_fd_sc_hd__buf_2
*CAP
1 *761:A2 0
2 *771:A2_N 0
3 *760:A3 0
4 *768:D 4.67401e-05
5 *772:A2 0
6 *767:D 0
7 *752:A_N 0
8 *755:B 0.000280013
9 *754:B 3.78963e-05
10 *762:A2 0
11 *750:X 0
12 *110:179 0.000466403
13 *110:164 0.000288444
14 *110:151 0.00110517
15 *110:143 0.00156901
16 *110:130 0.000646653
17 *110:126 0.00110509
18 *110:122 0.00113863
19 *110:109 0.00101355
20 *110:98 0.00241663
21 *110:85 0.0011596
22 *110:60 0.00157342
23 *110:58 0.00259189
24 *110:43 0.001568
25 *110:30 0.000737595
26 *110:16 0.00191875
27 *110:4 0.00163049
28 *754:B *830:CLK 3.86731e-05
29 *754:B *168:60 1.34966e-05
30 *754:B *168:74 2.3929e-05
31 *755:B *114:14 2.13627e-05
32 *755:B *134:54 2.52012e-05
33 *768:D *149:34 5.03902e-05
34 *110:16 *689:A 0.000363058
35 *110:16 *820:CLK 0.000363064
36 *110:16 *132:56 2.63738e-05
37 *110:16 *139:12 6.57602e-06
38 *110:16 *139:14 0.000352487
39 *110:16 *157:14 0.000133862
40 *110:30 *770:A 4.67488e-05
41 *110:30 *132:81 1.68284e-05
42 *110:30 *147:26 3.89397e-05
43 *110:30 *148:45 0.00052649
44 *110:43 *113:10 0.000220917
45 *110:43 *113:24 8.64901e-05
46 *110:43 *123:47 1.29843e-05
47 *110:43 *132:81 4.59624e-05
48 *110:43 *156:18 1.08929e-05
49 *110:43 *163:22 0.000269374
50 *110:58 *116:14 6.05154e-05
51 *110:58 *136:49 8.25811e-05
52 *110:58 *148:10 1.28035e-05
53 *110:58 *148:16 0.000373259
54 *110:58 *148:20 0
55 *110:58 *151:28 2.71291e-05
56 *110:58 *153:27 0.00010614
57 *110:58 *163:22 0.000375206
58 *110:58 *168:38 0.000116182
59 *110:85 *752:B 2.31591e-05
60 *110:85 *134:54 0.000750597
61 *110:85 *148:10 0
62 *110:85 *170:16 0.000453999
63 *110:85 *170:18 5.50049e-05
64 *110:98 *112:22 0
65 *110:98 *166:71 7.57281e-06
66 *110:109 *121:8 0.000141724
67 *110:109 *123:71 1.14452e-05
68 *110:109 *130:158 0.000202719
69 *110:109 *141:92 0
70 *110:109 *171:6 0.00014507
71 *110:122 *113:24 0.000110915
72 *110:122 *135:62 0.000606388
73 *110:122 *145:18 0.000509719
74 *110:122 *145:24 0.000219371
75 *110:122 *166:47 2.1819e-05
76 *110:126 *117:18 0.000302073
77 *110:130 *149:34 0.000968596
78 *110:143 *758:B 7.78635e-05
79 *110:143 *166:88 3.4466e-05
80 *110:151 *724:A 0.00024894
81 *110:151 *758:B 9.76276e-05
82 *110:151 *114:26 1.45325e-05
83 *110:151 *142:75 0.00156767
84 *110:151 *162:41 2.83822e-05
85 *110:151 *166:88 6.31392e-06
86 *110:151 *166:97 1.81615e-05
87 *110:164 *135:62 7.79175e-05
88 *110:179 *810:A 7.65063e-05
89 *110:179 *117:18 0.000355966
90 *110:179 *128:34 1.24376e-05
91 *110:179 *146:45 5.72853e-05
92 *819:RESET_B *755:B 0
93 *17:10 *110:179 9.65021e-05
94 *19:12 *755:B 2.33476e-05
95 *19:12 *110:85 0
96 *21:20 *110:122 0.000329268
97 *29:6 *754:B 5.3304e-05
98 *32:6 *110:109 0.000719262
99 *45:32 *110:151 1.73198e-05
100 *55:14 *110:16 2.26406e-05
101 *55:14 *110:58 0
102 *75:66 *110:164 9.5877e-05
103 *78:8 *110:85 5.96239e-05
104 *81:14 *110:30 7.32443e-05
105 *81:51 *110:109 0.000540523
106 *83:16 *110:30 0.000320311
107 *83:16 *110:43 5.53445e-05
108 *85:8 *110:30 6.85548e-05
109 *87:23 *110:16 0.00034874
110 *87:23 *110:30 4.67488e-05
111 *89:20 *110:130 0.000750105
112 *92:38 *755:B 9.07614e-05
113 *96:20 *768:D 2.08501e-05
114 *96:20 *110:130 8.99313e-05
115 *97:14 *110:122 0.000425833
116 *97:14 *110:164 0.000316306
117 *98:12 *110:16 5.56356e-05
118 *98:12 *110:122 0.000139692
119 *101:14 *110:16 4.31054e-05
120 *106:54 *110:151 0
121 *109:18 *110:43 1.95592e-05
122 *109:18 *110:58 0.000376856
*RES
1 *750:X *110:4 23 
2 *110:4 *110:16 39.1468 
3 *110:16 *110:30 27.0048 
4 *110:30 *762:A2 23 
5 *110:16 *110:43 13.121 
6 *110:43 *754:B 39.1186 
7 *110:43 *110:58 30.5061 
8 *110:58 *110:60 0.399467 
9 *110:60 *755:B 46.9781 
10 *110:60 *110:85 48.3232 
11 *110:85 *752:A_N 23 
12 *110:58 *110:98 25.6955 
13 *110:98 *767:D 23 
14 *110:98 *110:109 38.9043 
15 *110:109 *772:A2 38 
16 *110:4 *110:122 39.3807 
17 *110:122 *110:126 18.48 
18 *110:126 *110:130 28.3504 
19 *110:130 *768:D 38.6732 
20 *110:130 *110:143 8.5712 
21 *110:143 *110:151 27.2497 
22 *110:151 *760:A3 23 
23 *110:143 *110:164 28.6446 
24 *110:164 *771:A2_N 23 
25 *110:126 *110:179 37.3329 
26 *110:179 *761:A2 23 
*END

*D_NET *111 0.00969733
*CONN
*I *752:B I *D sky130_fd_sc_hd__and2b_1
*I *751:X O *D sky130_fd_sc_hd__a21o_1
*CAP
1 *752:B 0.000119498
2 *751:X 0.000301119
3 *111:14 0.0019435
4 *111:12 0.00212512
5 *752:B *165:71 0.000181125
6 *752:B *170:16 0.000489284
7 *111:12 *143:61 0.000218471
8 *111:14 *696:A 0
9 *111:14 *123:12 4.30894e-05
10 *111:14 *135:30 3.96108e-05
11 *111:14 *148:45 0.000148652
12 *111:14 *165:42 3.57033e-05
13 *111:14 *167:12 0.00086712
14 *111:14 *167:16 0.000177754
15 *696:D *111:14 0.000170791
16 *77:22 *111:14 0.000322674
17 *77:86 *111:14 0.000344108
18 *78:8 *752:B 0.000319405
19 *80:45 *111:14 0.000112947
20 *81:14 *111:14 0.000260162
21 *82:85 *111:14 0.000519104
22 *99:20 *111:12 0.000237592
23 *99:20 *111:14 0.000136395
24 *100:16 *111:12 0.000211241
25 *100:16 *111:14 0.0003497
26 *110:85 *752:B 2.31591e-05
*RES
1 *751:X *111:12 44.2868 
2 *111:12 *111:14 43.6346 
3 *111:14 *752:B 43.8621 
*END

*D_NET *112 0.0217747
*CONN
*I *753:A I *D sky130_fd_sc_hd__buf_1
*I *752:X O *D sky130_fd_sc_hd__and2b_1
*CAP
1 *753:A 0
2 *752:X 0.000105518
3 *112:34 0.00505041
4 *112:22 0.00629452
5 *112:12 0.00248699
6 *112:8 0.0013484
7 *112:8 *131:34 0
8 *112:12 *131:34 0.000446433
9 *112:22 *165:71 0.00020614
10 *112:22 *167:60 0.000142152
11 *112:22 *170:18 0.000237071
12 *112:34 *130:28 5.42421e-05
13 *112:34 *140:10 0.000149785
14 *38:18 *112:34 3.08153e-05
15 *60:24 *112:22 0
16 *60:24 *112:34 0.000259171
17 *61:10 *112:34 0.000285881
18 *68:12 *112:34 0.000128045
19 *91:54 *112:34 0
20 *91:73 *112:34 0
21 *93:24 *112:34 0.00433673
22 *95:75 *112:34 0.000103446
23 *103:28 *112:34 0
24 *108:6 *112:22 0.000108995
25 *110:98 *112:22 0
*RES
1 *752:X *112:8 39.5536 
2 *112:8 *112:12 38.49 
3 *112:12 *112:22 36.2034 
4 *112:22 *112:34 48.1575 
5 *112:34 *753:A 23 
*END

*D_NET *113 0.0116374
*CONN
*I *756:A_N I *D sky130_fd_sc_hd__and2b_1
*I *754:Y O *D sky130_fd_sc_hd__nor2_1
*CAP
1 *756:A_N 0
2 *754:Y 0.000146068
3 *113:24 0.00254487
4 *113:10 0.00269094
5 *113:10 *163:22 1.98354e-05
6 *113:24 *114:26 0.00040827
7 *113:24 *123:30 0.00267174
8 *113:24 *123:47 0.000139766
9 *113:24 *132:125 0.000581936
10 *113:24 *135:62 0.000104065
11 *113:24 *157:39 0.000282721
12 *6:25 *113:24 0.0013229
13 *83:16 *113:24 3.91292e-05
14 *95:37 *113:24 0
15 *109:18 *113:10 0.000266822
16 *110:43 *113:10 0.000220917
17 *110:43 *113:24 8.64901e-05
18 *110:122 *113:24 0.000110915
*RES
1 *754:Y *113:10 49.8425 
2 *113:10 *113:24 40.0762 
3 *113:24 *756:A_N 38 
*END

*D_NET *114 0.0169352
*CONN
*I *758:B I *D sky130_fd_sc_hd__xnor2_1
*I *756:B I *D sky130_fd_sc_hd__and2b_1
*I *755:Y O *D sky130_fd_sc_hd__nand2_1
*CAP
1 *758:B 0.00053865
2 *756:B 9.96662e-06
3 *755:Y 0.000208304
4 *114:26 0.00423727
5 *114:14 0.00389696
6 *756:B *141:47 2.33476e-05
7 *756:B *152:16 3.34818e-06
8 *756:B *169:37 1.05441e-05
9 *758:B *166:88 0
10 *114:14 *168:38 3.87221e-06
11 *114:26 *118:22 0.000752738
12 *114:26 *123:47 4.86436e-05
13 *114:26 *149:24 1.09901e-05
14 *114:26 *162:41 0
15 *755:B *114:14 2.13627e-05
16 *6:25 *114:26 0.00208561
17 *45:18 *758:B 2.33476e-05
18 *45:32 *758:B 0.000792263
19 *45:32 *114:26 0.0019417
20 *81:47 *114:14 0.000187109
21 *92:38 *114:26 0.00153479
22 *104:22 *758:B 6.10551e-06
23 *110:143 *758:B 7.78635e-05
24 *110:151 *758:B 9.76276e-05
25 *110:151 *114:26 1.45325e-05
26 *113:24 *114:26 0.00040827
*RES
1 *755:Y *114:14 48.4707 
2 *114:14 *114:26 29.5128 
3 *114:26 *756:B 46.3211 
4 *114:26 *758:B 48.0085 
*END

*D_NET *115 0.00400726
*CONN
*I *757:A I *D sky130_fd_sc_hd__buf_1
*I *756:X O *D sky130_fd_sc_hd__and2b_1
*CAP
1 *757:A 0
2 *756:X 0.000662503
3 *115:18 0.000513034
4 *115:12 0.00117554
5 *115:12 *143:94 0
6 *115:12 *148:58 0.000161475
7 *115:12 *169:37 0.000349498
8 *115:18 *143:94 0
9 *115:18 *143:98 0.000935997
10 *96:20 *115:12 2.2385e-05
11 *97:14 *115:12 0.000186833
*RES
1 *756:X *115:12 48.6782 
2 *115:12 *115:18 27.0868 
3 *115:18 *757:A 23 
*END

*D_NET *116 0.0180128
*CONN
*I *767:C I *D sky130_fd_sc_hd__and4_1
*I *761:A1 I *D sky130_fd_sc_hd__a21boi_1
*I *762:A1 I *D sky130_fd_sc_hd__a21oi_1
*I *759:X O *D sky130_fd_sc_hd__and3_1
*CAP
1 *767:C 0
2 *761:A1 0
3 *762:A1 0.00115906
4 *759:X 0
5 *116:74 0.000523202
6 *116:59 0.00109496
7 *116:53 0.0021992
8 *116:20 0.00285493
9 *116:14 0.00132602
10 *116:4 0.00125759
11 *762:A1 *818:CLK 2.8661e-05
12 *116:14 *812:A 0.00026025
13 *116:14 *148:16 4.6318e-06
14 *116:14 *153:27 1.66113e-05
15 *116:14 *163:22 0.000416218
16 *116:20 *133:18 0.000581199
17 *116:20 *135:14 1.22803e-05
18 *116:20 *145:72 0.000833984
19 *116:53 *126:26 0.000158796
20 *116:53 *129:102 0.000212072
21 *116:53 *142:130 0.000110184
22 *116:53 *156:56 5.85822e-06
23 *116:53 *166:55 3.93595e-05
24 *116:59 *126:49 0.000332252
25 *116:59 *126:61 3.98882e-06
26 *116:59 *138:77 0.000128341
27 *116:74 *767:B 0.000450137
28 *116:74 *146:72 6.56834e-05
29 *116:74 *164:104 4.15888e-05
30 *116:74 *167:58 0
31 *818:RESET_B *762:A1 7.13102e-05
32 *818:RESET_B *116:20 0.000110054
33 *818:RESET_B *116:53 0.000188866
34 *818:RESET_B *116:59 0
35 *824:RESET_B *116:20 0.00016706
36 *824:RESET_B *116:53 0.000199303
37 *833:RESET_B *116:59 0
38 *839:RESET_B *116:59 0.000180559
39 *24:16 *116:53 9.48635e-05
40 *24:16 *116:59 2.45159e-05
41 *32:6 *116:74 0.0004935
42 *40:14 *116:59 0.000493816
43 *43:38 *116:59 0
44 *53:12 *116:14 0.000689405
45 *53:12 *116:20 3.23525e-06
46 *69:10 *116:14 4.64428e-05
47 *69:10 *116:74 2.42065e-05
48 *70:12 *762:A1 6.17437e-06
49 *77:30 *116:14 0.000180218
50 *81:47 *116:74 2.02872e-05
51 *86:14 *116:14 0.000178517
52 *87:23 *762:A1 7.40352e-05
53 *89:28 *116:53 0.000127184
54 *92:24 *116:59 0
55 *108:14 *116:74 0.000279471
56 *109:14 *116:20 0.000182196
57 *110:58 *116:14 6.05154e-05
*RES
1 *759:X *116:4 23 
2 *116:4 *116:14 46.1364 
3 *116:14 *116:20 44.935 
4 *116:20 *762:A1 37.5 
5 *116:20 *116:53 36.3668 
6 *116:53 *116:59 33.9432 
7 *116:59 *761:A1 23 
8 *116:4 *116:74 42.3871 
9 *116:74 *767:C 23 
*END

*D_NET *117 0.00719887
*CONN
*I *761:B1_N I *D sky130_fd_sc_hd__a21boi_1
*I *760:X O *D sky130_fd_sc_hd__a31o_1
*CAP
1 *761:B1_N 0
2 *760:X 0.000531555
3 *117:18 0.00167817
4 *117:8 0.00220972
5 *117:8 *760:A1 0.000145356
6 *117:8 *760:B1 0.00049533
7 *117:18 *810:A 0.000146822
8 *117:18 *143:18 0.000326886
9 *117:18 *143:90 0.000180841
10 *117:18 *162:41 2.36993e-05
11 *117:18 *166:22 0.000387516
12 *77:124 *117:18 0.000120147
13 *80:18 *117:18 0.00015692
14 *95:53 *117:18 6.92184e-05
15 *98:16 *117:18 6.86505e-05
16 *110:126 *117:18 0.000302073
17 *110:179 *117:18 0.000355966
*RES
1 *760:X *117:8 46.2443 
2 *117:8 *117:18 45.7607 
3 *117:18 *761:B1_N 23 
*END

*D_NET *118 0.0169327
*CONN
*I *764:A_N I *D sky130_fd_sc_hd__and2b_1
*I *762:Y O *D sky130_fd_sc_hd__a21oi_1
*CAP
1 *764:A_N 0.000360354
2 *762:Y 0.000222689
3 *118:26 0.00140645
4 *118:22 0.00423284
5 *118:12 0.00340944
6 *764:A_N *764:B 4.09193e-05
7 *764:A_N *797:A 9.84851e-05
8 *764:A_N *807:A 0.000434159
9 *764:A_N *120:10 0.000390403
10 *118:12 *123:16 0.000476334
11 *118:12 *162:58 0.000475588
12 *118:22 *156:45 0
13 *118:26 *119:23 0.00230661
14 *118:26 *121:10 0.000641089
15 *118:26 *128:54 4.99753e-06
16 *118:26 *128:56 9.48381e-06
17 *118:26 *130:18 0
18 *813:RESET_B *118:22 0
19 *6:25 *118:22 6.84804e-05
20 *18:20 *118:22 0
21 *26:18 *118:12 2.47015e-05
22 *50:24 *118:22 2.65114e-05
23 *64:8 *764:A_N 4.15198e-05
24 *66:8 *118:26 0
25 *84:10 *118:12 2.26497e-05
26 *92:38 *118:22 0.000756608
27 *96:35 *118:22 0
28 *102:12 *118:26 0.000485895
29 *103:12 *118:26 9.85586e-06
30 *103:28 *118:26 0.000233911
31 *114:26 *118:22 0.000752738
*RES
1 *762:Y *118:12 47.2787 
2 *118:12 *118:22 30.9123 
3 *118:22 *118:26 47.0139 
4 *118:26 *764:A_N 32.1971 
*END

*D_NET *119 0.0168396
*CONN
*I *764:B I *D sky130_fd_sc_hd__and2b_1
*I *766:B I *D sky130_fd_sc_hd__xnor2_1
*I *763:Y O *D sky130_fd_sc_hd__nand2_1
*CAP
1 *764:B 0.000345378
2 *766:B 0.000152184
3 *763:Y 0.000348571
4 *119:23 0.00175765
5 *119:21 0.00300649
6 *119:10 0.0017464
7 *119:8 0.000348571
8 *764:B *797:A 3.22879e-05
9 *764:B *807:A 0.00023141
10 *766:B *766:A 5.5792e-05
11 *766:B *135:60 0.000349249
12 *766:B *148:24 0.000138859
13 *766:B *148:56 0.000219266
14 *119:8 *135:60 3.46013e-05
15 *119:8 *139:10 9.86109e-05
16 *119:8 *139:12 9.06618e-05
17 *119:8 *139:76 4.08641e-05
18 *119:21 *148:56 0.000246524
19 *119:23 *121:10 4.61839e-05
20 *119:23 *128:12 0.000398082
21 *119:23 *128:54 2.49733e-05
22 *119:23 *128:105 0.000248161
23 *119:23 *141:79 0
24 *764:A_N *764:B 4.09193e-05
25 *826:RESET_B *119:23 0.00115123
26 *840:RESET_B *119:21 0.000135503
27 *5:13 *119:23 0.000212615
28 *5:19 *119:23 0.00108359
29 *49:10 *119:23 0
30 *54:8 *764:B 5.50106e-05
31 *55:14 *119:21 0.000576586
32 *64:8 *764:B 0.000142636
33 *65:8 *119:23 0.000292865
34 *91:54 *119:23 0.000109559
35 *103:28 *119:23 0.000239433
36 *109:18 *119:8 0.000532312
37 *118:26 *119:23 0.00230661
*RES
1 *763:Y *119:8 45.54 
2 *119:8 *119:10 15 
3 *119:10 *766:B 27.4329 
4 *119:10 *119:21 40.8721 
5 *119:21 *119:23 45.2193 
6 *119:23 *764:B 45.3121 
*END

*D_NET *120 0.00951341
*CONN
*I *765:A I *D sky130_fd_sc_hd__buf_1
*I *764:X O *D sky130_fd_sc_hd__and2b_1
*CAP
1 *765:A 0
2 *764:X 0.000544988
3 *120:20 2.71128e-05
4 *120:14 0.00223407
5 *120:10 0.00275194
6 *120:10 *809:A 0.00018085
7 *120:10 *128:56 6.68793e-05
8 *120:14 *809:A 0.000279661
9 *120:14 *130:28 0.000993009
10 *120:20 *823:CLK 6.33771e-05
11 *764:A_N *120:10 0.000390403
12 *823:RESET_B *120:14 0.00154314
13 *18:12 *120:20 2.8133e-05
14 *37:10 *120:14 7.53303e-06
15 *49:10 *120:10 0.000402304
*RES
1 *764:X *120:10 49.2686 
2 *120:10 *120:14 49.9243 
3 *120:14 *120:20 30.8493 
4 *120:20 *765:A 23 
*END

*D_NET *121 0.0115276
*CONN
*I *769:A2 I *D sky130_fd_sc_hd__o21ba_1
*I *767:X O *D sky130_fd_sc_hd__and4_1
*CAP
1 *769:A2 0.000245768
2 *767:X 0.00043612
3 *121:10 0.00198125
4 *121:8 0.0021716
5 *769:A2 *122:31 0.00056478
6 *769:A2 *145:49 0.00060549
7 *769:A2 *149:51 5.19226e-05
8 *121:8 *171:6 0.000354651
9 *121:10 *702:C 0.000252962
10 *121:10 *128:12 0.000400323
11 *121:10 *128:105 0.00140629
12 *121:10 *130:141 0
13 *121:10 *134:25 0.00054981
14 *121:10 *141:92 0
15 *121:10 *161:21 0
16 *121:10 *161:40 0
17 *121:10 *168:52 5.20305e-05
18 *828:D *121:10 0.000112864
19 *18:20 *121:10 0.000123721
20 *22:10 *121:10 0.000475649
21 *22:12 *121:10 0.000285887
22 *65:8 *121:10 0.000292865
23 *81:51 *121:8 0.000274303
24 *102:12 *121:10 6.03228e-05
25 *110:109 *121:8 0.000141724
26 *118:26 *121:10 0.000641089
27 *119:23 *121:10 4.61839e-05
*RES
1 *767:X *121:8 48.15 
2 *121:8 *121:10 47.3321 
3 *121:10 *769:A2 46.265 
*END

*D_NET *122 0.0100639
*CONN
*I *769:B1_N I *D sky130_fd_sc_hd__o21ba_1
*I *771:B1 I *D sky130_fd_sc_hd__o2bb2a_1
*I *768:X O *D sky130_fd_sc_hd__and4_1
*CAP
1 *769:B1_N 0
2 *771:B1 4.47995e-05
3 *768:X 0.000155789
4 *122:31 0.000629489
5 *122:27 0.00173173
6 *122:10 0.00114704
7 *122:8 0.000155789
8 *122:8 *129:30 0.000189609
9 *122:8 *149:34 0.000366929
10 *122:27 *778:A 4.36401e-06
11 *122:27 *126:61 8.06461e-06
12 *122:27 *151:10 0.000286249
13 *122:27 *151:12 0.00157012
14 *122:31 *145:49 0.000533573
15 *122:31 *149:51 0.00082956
16 *739:A_N *771:B1 1.59094e-05
17 *739:A_N *122:27 0.000232316
18 *769:A2 *122:31 0.00056478
19 *832:RESET_B *122:27 4.81382e-05
20 *45:18 *122:8 0.000147022
21 *50:28 *122:27 0.00138866
22 *60:24 *122:27 1.3999e-05
*RES
1 *768:X *122:8 43.075 
2 *122:8 *122:10 15 
3 *122:10 *771:B1 23.6214 
4 *122:10 *122:27 46.8171 
5 *122:27 *122:31 32.7729 
6 *122:31 *769:B1_N 23 
*END

*D_NET *123 0.0236325
*CONN
*I *772:A1 I *D sky130_fd_sc_hd__a21oi_1
*I *771:A1_N I *D sky130_fd_sc_hd__o2bb2a_1
*I *770:X O *D sky130_fd_sc_hd__and4_1
*CAP
1 *772:A1 0
2 *771:A1_N 0
3 *770:X 0.000192635
4 *123:71 0.00127512
5 *123:57 0.00258986
6 *123:47 0.00190023
7 *123:30 0.00200634
8 *123:16 0.0032755
9 *123:12 0.000876305
10 *123:12 *167:16 4.36547e-05
11 *123:16 *150:24 3.64574e-05
12 *123:16 *162:58 0.000227077
13 *123:30 *771:B2 3.37968e-05
14 *123:30 *135:62 9.20311e-06
15 *123:30 *156:18 0.00119537
16 *123:30 *156:30 0.000401901
17 *123:47 *132:81 0.00017048
18 *123:47 *133:10 4.30894e-05
19 *123:47 *156:18 0.000119246
20 *123:57 *133:18 7.0127e-05
21 *123:57 *162:58 0
22 *123:57 *168:60 0.000294844
23 *123:71 *690:A 0
24 *123:71 *124:8 6.16635e-05
25 *123:71 *141:92 0
26 *123:71 *169:69 0
27 *714:A2 *123:57 0.000229793
28 *714:B1_N *123:57 4.05745e-05
29 *830:D *123:57 0.00148763
30 *6:25 *123:30 1.79136e-05
31 *21:20 *123:30 8.78829e-05
32 *45:32 *123:30 0
33 *56:16 *123:71 0.00012758
34 *70:12 *123:12 0.000177604
35 *75:66 *123:30 6.96976e-05
36 *77:124 *123:16 4.6719e-05
37 *82:141 *123:57 8.22421e-06
38 *83:16 *123:16 0.00116377
39 *83:16 *123:47 0
40 *83:16 *123:57 0
41 *90:12 *123:57 0.000149626
42 *91:40 *123:57 0
43 *91:54 *123:71 0.000371373
44 *91:73 *123:71 0.000766696
45 *94:10 *123:30 0.000133316
46 *95:75 *123:57 2.29192e-05
47 *97:14 *123:30 0.000459125
48 *99:14 *123:47 4.51887e-05
49 *110:43 *123:47 1.29843e-05
50 *110:109 *123:71 1.14452e-05
51 *111:14 *123:12 4.30894e-05
52 *113:24 *123:30 0.00267174
53 *113:24 *123:47 0.000139766
54 *114:26 *123:47 4.86436e-05
55 *118:12 *123:16 0.000476334
*RES
1 *770:X *123:12 48.7239 
2 *123:12 *123:16 10.3315 
3 *123:16 *123:30 43.5737 
4 *123:30 *771:A1_N 23 
5 *123:16 *123:47 32.9743 
6 *123:47 *123:57 43.262 
7 *123:57 *123:71 45.1218 
8 *123:71 *772:A1 23 
*END

*D_NET *124 0.00259803
*CONN
*I *773:B I *D sky130_fd_sc_hd__nor2_1
*I *772:Y O *D sky130_fd_sc_hd__a21oi_1
*CAP
1 *773:B 0.000255628
2 *772:Y 0.000304374
3 *124:8 0.000560002
4 *773:B *706:A 5.3304e-05
5 *773:B *160:16 0.00022316
6 *124:8 *141:92 0
7 *124:8 *144:16 0.000364537
8 *56:16 *124:8 9.63388e-05
9 *73:18 *124:8 2.64866e-05
10 *77:58 *773:B 0.000461968
11 *77:69 *773:B 5.50106e-05
12 *86:41 *124:8 0.000135557
13 *123:71 *124:8 6.16635e-05
*RES
1 *772:Y *124:8 45.8921 
2 *124:8 *773:B 43.8621 
*END

*D_NET *125 0.00298226
*CONN
*I *777:A I *D sky130_fd_sc_hd__nor2_1
*I *775:Y O *D sky130_fd_sc_hd__a21oi_1
*CAP
1 *777:A 0.000760427
2 *775:Y 0.000401092
3 *125:10 0.00116152
4 *777:A *738:B1 2.99019e-05
5 *777:A *126:32 1.23196e-05
6 *777:A *126:49 1.09903e-05
7 *777:A *138:77 1.83408e-05
8 *777:A *141:12 5.56356e-05
9 *125:10 *152:63 4.79008e-05
10 *125:10 *159:21 0.000293785
11 *125:10 *163:39 9.41704e-05
12 *775:A2 *125:10 3.17516e-05
13 *813:D *777:A 6.44288e-05
*RES
1 *775:Y *125:10 45.0221 
2 *125:10 *777:A 48.3364 
*END

*D_NET *126 0.0137664
*CONN
*I *778:B I *D sky130_fd_sc_hd__xor2_1
*I *777:B I *D sky130_fd_sc_hd__nor2_1
*I *776:X O *D sky130_fd_sc_hd__and3_1
*CAP
1 *778:B 5.52498e-05
2 *777:B 0
3 *776:X 0.000354697
4 *126:61 0.0015841
5 *126:49 0.00183775
6 *126:32 0.000445555
7 *126:26 0.000857623
8 *126:16 0.00166863
9 *126:8 0.00130236
10 *778:B *169:16 0.000281546
11 *778:B *175:12 9.91842e-05
12 *126:16 *814:CLK 9.41704e-05
13 *126:16 *156:56 0
14 *126:16 *156:71 0
15 *126:16 *158:37 5.95452e-05
16 *126:26 *136:14 0
17 *126:26 *136:32 0
18 *126:26 *144:66 0.000181805
19 *126:49 *138:77 0.000317853
20 *126:61 *136:14 0
21 *126:61 *138:77 0.000298172
22 *126:61 *146:45 0
23 *126:61 *151:12 0.000129968
24 *777:A *126:32 1.23196e-05
25 *777:A *126:49 1.09903e-05
26 *813:D *126:32 6.84186e-06
27 *813:D *126:49 1.59094e-05
28 *818:RESET_B *126:26 0
29 *824:RESET_B *126:16 0
30 *831:RESET_B *126:61 0.000156496
31 *17:10 *126:61 3.21668e-05
32 *24:16 *126:16 0.00127852
33 *24:16 *126:26 0.000794383
34 *40:14 *126:61 0.000183713
35 *43:38 *126:26 6.48142e-05
36 *55:26 *126:61 0.000621883
37 *60:24 *126:61 3.40053e-05
38 *71:22 *126:16 9.64943e-05
39 *86:14 *126:8 0.000280202
40 *89:28 *126:16 9.85897e-06
41 *92:24 *126:49 9.64943e-05
42 *105:14 *126:61 0
43 *116:53 *126:26 0.000158796
44 *116:59 *126:49 0.000332252
45 *116:59 *126:61 3.98882e-06
46 *122:27 *126:61 8.06461e-06
*RES
1 *776:X *126:8 42.9093 
2 *126:8 *126:16 49.2021 
3 *126:16 *126:26 45.37 
4 *126:26 *126:32 16.9471 
5 *126:32 *777:B 23 
6 *126:32 *126:49 36.9393 
7 *126:49 *126:61 42.6536 
8 *126:61 *778:B 41.0036 
*END

*D_NET *127 0.0113015
*CONN
*I *780:B1 I *D sky130_fd_sc_hd__o2bb2a_1
*I *779:X O *D sky130_fd_sc_hd__and4_1
*CAP
1 *780:B1 0
2 *779:X 0.000279188
3 *127:20 0.000720485
4 *127:12 0.00157283
5 *127:6 0.00113153
6 *127:6 *779:A 0.000353419
7 *127:6 *779:C 3.18142e-05
8 *127:12 *829:CLK 2.54758e-05
9 *127:12 *134:43 0.000604588
10 *127:12 *139:98 0.000941456
11 *127:12 *150:35 0.00144845
12 *127:12 *155:14 6.54711e-06
13 *127:12 *161:52 6.32792e-05
14 *127:12 *161:60 8.30566e-06
15 *127:12 *161:67 4.40055e-05
16 *127:20 *780:A1_N 9.41704e-05
17 *127:20 *129:66 0.000474249
18 *127:20 *139:48 4.56456e-05
19 *127:20 *142:8 0.000308414
20 *127:20 *144:87 4.05745e-05
21 *127:20 *150:35 1.77242e-05
22 *127:20 *155:14 0.000341521
23 *779:D *127:6 0.000442911
24 *780:A2_N *127:20 0.00018902
25 *814:RESET_B *127:20 9.19022e-06
26 *18:12 *127:20 0.000684359
27 *27:16 *127:12 0
28 *27:16 *127:20 0.000233417
29 *33:26 *127:6 0.00118896
*RES
1 *779:X *127:6 36.0086 
2 *127:6 *127:12 39.3082 
3 *127:12 *127:20 34.7718 
4 *127:20 *780:B1 23 
*END

*D_NET *128 0.0308933
*CONN
*I *804:A I *D sky130_fd_sc_hd__inv_2
*I *805:A I *D sky130_fd_sc_hd__inv_2
*I *812:A I *D sky130_fd_sc_hd__inv_2
*I *808:A I *D sky130_fd_sc_hd__inv_2
*I *782:A I *D sky130_fd_sc_hd__buf_4
*I *807:A I *D sky130_fd_sc_hd__inv_2
*I *806:A I *D sky130_fd_sc_hd__inv_2
*I *809:A I *D sky130_fd_sc_hd__inv_2
*I *811:A I *D sky130_fd_sc_hd__inv_2
*I *810:A I *D sky130_fd_sc_hd__inv_2
*I *781:X O *D sky130_fd_sc_hd__buf_4
*CAP
1 *804:A 2.52923e-05
2 *805:A 0
3 *812:A 0.000807788
4 *808:A 2.54652e-05
5 *782:A 0
6 *807:A 0.000144759
7 *806:A 0.000366745
8 *809:A 0.000447672
9 *811:A 0
10 *810:A 0.000108503
11 *781:X 0.000373749
12 *128:123 0.00122079
13 *128:115 0.00116992
14 *128:105 0.00160508
15 *128:56 0.000949335
16 *128:54 0.000660491
17 *128:43 0.000486961
18 *128:34 0.000794075
19 *128:22 0.00089194
20 *128:18 0.000788669
21 *128:12 0.000859262
22 *128:8 0.00134197
23 *806:A *169:16 9.2057e-05
24 *806:A *175:12 0.000373606
25 *812:A *148:16 0.000353434
26 *812:A *150:35 0.000306062
27 *812:A *151:28 0.000264773
28 *128:34 *716:B2 0.000101934
29 *128:34 *138:8 0.000123698
30 *128:34 *138:10 9.26098e-05
31 *128:34 *152:35 0.00016597
32 *128:34 *152:50 5.79466e-05
33 *128:34 *159:8 0.000252901
34 *128:43 *716:B2 1.21972e-05
35 *128:54 *716:B2 1.59094e-05
36 *128:105 *816:CLK 7.15126e-05
37 *128:105 *168:26 2.17486e-05
38 *128:105 *168:52 0.000779022
39 *128:105 *168:60 0.000162589
40 *128:115 *816:CLK 0.000105913
41 *128:115 *834:CLK 0.00042998
42 *128:115 *140:51 3.41998e-06
43 *128:115 *147:45 0
44 *128:115 *153:27 0.00064619
45 *128:115 *168:26 1.08287e-05
46 *128:123 *133:18 5.79438e-05
47 *128:123 *156:71 0.000205621
48 *128:123 *164:104 0
49 *128:123 *167:58 0.000177496
50 *764:A_N *807:A 0.000434159
51 *764:B *807:A 0.00023141
52 *781:A *128:8 0.000344591
53 *826:RESET_B *128:54 0.000764483
54 *834:D *128:115 6.17437e-06
55 *839:RESET_B *810:A 0.000267093
56 *839:RESET_B *128:34 0.000111569
57 *5:13 *128:105 0.000106745
58 *17:10 *128:34 2.1819e-05
59 *22:12 *128:18 0.00167472
60 *22:12 *128:22 0.000240435
61 *24:16 *128:115 0.000155087
62 *30:8 *128:54 0.000216712
63 *31:22 *128:115 9.64943e-05
64 *31:22 *128:123 0.000270671
65 *49:6 *808:A 2.18409e-05
66 *49:6 *128:18 0.00011935
67 *49:10 *128:54 0.000199996
68 *49:10 *128:56 1.4471e-05
69 *52:6 *808:A 2.64616e-05
70 *52:6 *128:18 0.000116427
71 *61:8 *128:115 9.41704e-05
72 *68:8 *128:34 9.58714e-05
73 *68:8 *128:43 0.000263814
74 *69:10 *812:A 0.000511094
75 *73:18 *128:105 2.64616e-05
76 *82:119 *128:18 0.000984311
77 *82:119 *128:22 0.000240435
78 *82:126 *128:18 0.000274003
79 *82:141 *128:18 0.000420258
80 *90:33 *128:34 0.000601244
81 *90:33 *128:43 0.00029315
82 *90:33 *128:54 4.08664e-05
83 *103:28 *128:18 0.000137335
84 *110:179 *810:A 7.65063e-05
85 *110:179 *128:34 1.24376e-05
86 *116:14 *812:A 0.00026025
87 *117:18 *810:A 0.000146822
88 *118:26 *128:54 4.99753e-06
89 *118:26 *128:56 9.48381e-06
90 *119:23 *128:12 0.000398082
91 *119:23 *128:54 2.49733e-05
92 *119:23 *128:105 0.000248161
93 *120:10 *809:A 0.00018085
94 *120:10 *128:56 6.68793e-05
95 *120:14 *809:A 0.000279661
96 *121:10 *128:12 0.000400323
97 *121:10 *128:105 0.00140629
*RES
1 *781:X *128:8 43.8621 
2 *128:8 *128:12 20.4271 
3 *128:12 *128:18 40.2093 
4 *128:18 *128:22 18.3143 
5 *128:22 *128:34 46.6129 
6 *128:34 *810:A 26.48 
7 *128:22 *128:43 3.48 
8 *128:43 *811:A 23 
9 *128:43 *128:54 27.035 
10 *128:54 *128:56 2.61 
11 *128:56 *809:A 49.165 
12 *128:56 *806:A 45.7679 
13 *128:54 *807:A 42.9093 
14 *128:18 *782:A 38 
15 *128:12 *808:A 23.6214 
16 *128:8 *128:105 37.9929 
17 *128:105 *128:115 46.3643 
18 *128:115 *128:123 39.135 
19 *128:123 *812:A 40.7936 
20 *128:115 *805:A 23 
21 *128:105 *804:A 23.4971 
*END

*D_NET *129 0.0324036
*CONN
*I *788:A I *D sky130_fd_sc_hd__inv_2
*I *786:A I *D sky130_fd_sc_hd__inv_2
*I *785:A I *D sky130_fd_sc_hd__inv_2
*I *792:A I *D sky130_fd_sc_hd__inv_2
*I *783:A I *D sky130_fd_sc_hd__inv_2
*I *791:A I *D sky130_fd_sc_hd__inv_2
*I *790:A I *D sky130_fd_sc_hd__inv_2
*I *784:A I *D sky130_fd_sc_hd__inv_2
*I *789:A I *D sky130_fd_sc_hd__inv_2
*I *787:A I *D sky130_fd_sc_hd__inv_2
*I *782:X O *D sky130_fd_sc_hd__buf_4
*CAP
1 *788:A 0
2 *786:A 2.05553e-05
3 *785:A 0
4 *792:A 0
5 *783:A 0
6 *791:A 0
7 *790:A 0
8 *784:A 0.000441473
9 *789:A 0.000808737
10 *787:A 0.000394103
11 *782:X 0.000983871
12 *129:141 0.000644923
13 *129:129 0.00122711
14 *129:116 0.000704553
15 *129:109 0.000287777
16 *129:102 0.000735043
17 *129:87 0.000226836
18 *129:70 0.000806017
19 *129:68 0.0007279
20 *129:66 0.000832462
21 *129:49 0.00246061
22 *129:30 0.00118725
23 *129:18 0.0017638
24 *129:14 0.000190858
25 *129:10 0.00102349
26 *784:A *727:A2 4.93812e-05
27 *784:A *145:14 9.02546e-05
28 *786:A *146:57 4.08664e-05
29 *786:A *172:26 5.3304e-05
30 *789:A *742:A 4.99598e-05
31 *129:10 *844:A 0.000400403
32 *129:10 *136:14 0.000188927
33 *129:10 *144:45 0.00081593
34 *129:18 *149:34 3.53997e-05
35 *129:30 *758:A 0.000100069
36 *129:30 *149:34 0.00056896
37 *129:30 *169:16 0.00022266
38 *129:30 *169:37 8.68427e-06
39 *129:30 *175:12 0.000350072
40 *129:49 *132:6 0.000756987
41 *129:49 *132:12 9.41704e-05
42 *129:66 *132:12 9.64203e-05
43 *129:66 *132:31 0.000427337
44 *129:66 *132:52 7.6144e-05
45 *129:66 *155:14 0.000173994
46 *129:66 *157:39 0.000157562
47 *129:70 *145:14 7.50819e-05
48 *129:87 *173:25 5.3304e-05
49 *129:102 *142:130 0.000346217
50 *129:102 *145:14 0.000162289
51 *129:102 *158:37 5.3304e-05
52 *129:102 *163:18 0.000302823
53 *129:102 *173:31 0.000136738
54 *129:109 *158:37 0.000185371
55 *129:129 *152:63 0.000381361
56 *129:141 *776:B 4.58941e-05
57 *129:141 *133:26 5.36548e-05
58 *129:141 *140:45 0.000161405
59 *129:141 *146:57 9.58714e-05
60 *129:141 *151:18 2.12347e-06
61 *129:141 *166:63 0.000500687
62 *129:141 *172:26 9.41704e-05
63 *727:B1 *784:A 0.000858718
64 *742:B *789:A 9.02048e-05
65 *818:RESET_B *129:102 0.000214237
66 *823:RESET_B *787:A 0.000189176
67 *833:RESET_B *129:30 0.000476356
68 *841:RESET_B *129:141 1.94693e-05
69 *18:12 *129:66 0.00107483
70 *26:18 *129:87 0.000385021
71 *31:22 *129:141 0.000101883
72 *37:10 *787:A 0.000106808
73 *42:6 *784:A 0.00123846
74 *42:6 *129:70 0.000257636
75 *42:6 *129:102 5.56356e-05
76 *47:10 *789:A 1.05235e-05
77 *48:6 *129:87 6.17437e-06
78 *49:6 *129:109 0.000187446
79 *49:6 *129:116 0.000204726
80 *49:6 *129:129 8.55841e-05
81 *52:6 *129:109 0.000110253
82 *52:6 *129:116 0.000212241
83 *52:6 *129:129 9.02364e-05
84 *57:10 *129:129 0.000999724
85 *57:10 *129:141 0.000617587
86 *78:22 *129:14 5.01195e-05
87 *78:22 *129:18 3.70187e-05
88 *84:10 *129:87 0.00038186
89 *87:12 *789:A 7.37405e-05
90 *87:12 *129:49 2.44913e-05
91 *89:28 *129:102 1.59094e-05
92 *89:28 *129:109 9.38112e-06
93 *90:12 *129:129 0.000184857
94 *104:22 *129:30 0
95 *105:6 *789:A 8.24209e-06
96 *105:14 *787:A 0.000273958
97 *116:53 *129:102 0.000212072
98 *122:8 *129:30 0.000189609
99 *127:20 *129:66 0.000474249
*RES
1 *782:X *129:10 39.8614 
2 *129:10 *129:14 15.8493 
3 *129:14 *129:18 2.87929 
4 *129:18 *129:30 49.3057 
5 *129:30 *787:A 46.9486 
6 *129:18 *129:49 25.6264 
7 *129:49 *789:A 32.9221 
8 *129:49 *129:66 37.7443 
9 *129:66 *129:68 15 
10 *129:68 *129:70 3.00357 
11 *129:70 *784:A 37.4586 
12 *129:70 *129:87 36.0486 
13 *129:87 *790:A 23 
14 *129:68 *129:102 43.7336 
15 *129:102 *791:A 23 
16 *129:102 *129:109 4.43286 
17 *129:109 *783:A 23 
18 *129:109 *129:116 4.43286 
19 *129:116 *792:A 23 
20 *129:116 *129:129 45.9293 
21 *129:129 *129:141 46.0536 
22 *129:141 *785:A 23 
23 *129:129 *786:A 23.6214 
24 *129:14 *788:A 38 
*END

*D_NET *130 0.04302
*CONN
*I *795:A I *D sky130_fd_sc_hd__inv_2
*I *799:A I *D sky130_fd_sc_hd__inv_2
*I *803:A I *D sky130_fd_sc_hd__inv_2
*I *798:A I *D sky130_fd_sc_hd__inv_2
*I *796:A I *D sky130_fd_sc_hd__inv_2
*I *800:A I *D sky130_fd_sc_hd__inv_2
*I *801:A I *D sky130_fd_sc_hd__inv_2
*I *802:A I *D sky130_fd_sc_hd__inv_2
*I *797:A I *D sky130_fd_sc_hd__inv_2
*I *794:A I *D sky130_fd_sc_hd__inv_2
*I *793:X O *D sky130_fd_sc_hd__buf_4
*CAP
1 *795:A 0
2 *799:A 0
3 *803:A 0
4 *798:A 0.000192807
5 *796:A 0.000121584
6 *800:A 0.000199425
7 *801:A 0
8 *802:A 0
9 *797:A 0.000195601
10 *794:A 2.30556e-05
11 *793:X 0
12 *130:158 0.000618557
13 *130:141 0.00142843
14 *130:115 0.000765039
15 *130:107 0.00307391
16 *130:101 0.00338251
17 *130:97 0.000983034
18 *130:91 0.000731706
19 *130:78 0.000643662
20 *130:65 0.00167952
21 *130:55 0.00271827
22 *130:28 0.000573247
23 *130:18 0.00115539
24 *130:14 0.000661366
25 *130:12 0.00194113
26 *130:4 0.00101119
27 *796:A *133:82 0.000353146
28 *796:A *168:82 1.59071e-05
29 *798:A *134:43 0.00027772
30 *800:A *173:31 0.000159873
31 *130:12 *144:66 7.69066e-05
32 *130:28 *166:88 0.000592025
33 *130:65 *734:B 4.67488e-05
34 *130:65 *132:20 0.000560151
35 *130:65 *142:41 0.000136787
36 *130:65 *158:12 0.000889485
37 *130:78 *144:66 0.000149509
38 *130:78 *169:54 0.00046597
39 *130:91 *169:54 0.000235293
40 *130:97 *142:170 0.00130392
41 *130:101 *134:21 0.00021677
42 *130:107 *134:43 8.4047e-05
43 *130:107 *135:14 3.34129e-05
44 *130:107 *135:22 1.5769e-05
45 *130:107 *136:32 2.02872e-05
46 *130:107 *136:49 0.000904399
47 *130:107 *139:76 0.000164391
48 *130:115 *167:12 0.000369939
49 *130:158 *748:C 0.000719772
50 *130:158 *772:B1 0
51 *130:158 *141:92 0
52 *130:158 *141:94 0.000500161
53 *130:158 *165:81 0.000189848
54 *130:158 *169:75 0.000184415
55 *702:A_N *130:141 0.000103575
56 *739:A_N *797:A 2.4754e-05
57 *739:A_N *130:28 4.96717e-05
58 *745:B *130:65 5.58003e-05
59 *764:A_N *797:A 9.84851e-05
60 *764:B *797:A 3.22879e-05
61 *832:D *797:A 0.000103647
62 *832:D *130:28 4.67488e-05
63 *5:13 *130:97 0.000888788
64 *5:19 *130:78 5.73309e-05
65 *5:19 *130:97 0.000424338
66 *19:12 *798:A 0.000287863
67 *19:12 *130:107 8.4047e-05
68 *22:12 *130:14 0
69 *22:12 *130:18 0
70 *25:10 *130:28 0
71 *31:22 *798:A 0.000137651
72 *32:14 *130:141 1.92544e-05
73 *37:10 *130:28 9.57583e-05
74 *40:14 *130:55 0.00110952
75 *49:6 *130:97 6.9908e-05
76 *52:6 *130:97 9.17998e-05
77 *53:6 *796:A 0.00016001
78 *55:8 *798:A 3.16665e-05
79 *56:8 *130:158 2.2281e-05
80 *60:10 *130:141 0.000227284
81 *66:8 *130:18 0.000300126
82 *66:8 *130:28 0.000577852
83 *68:12 *130:12 0.000836789
84 *68:12 *130:14 0.00034471
85 *71:16 *130:101 8.67228e-06
86 *71:16 *130:107 8.91468e-07
87 *73:12 *130:78 0.000463738
88 *73:12 *130:91 0.000244517
89 *77:30 *130:115 0.000598581
90 *77:49 *130:141 0.00034234
91 *81:14 *130:115 0.000367698
92 *82:113 *130:12 9.41704e-05
93 *82:119 *130:14 3.72639e-05
94 *82:141 *130:141 0.000132142
95 *82:154 *130:141 3.46351e-05
96 *83:16 *130:141 0.000689818
97 *91:30 *130:107 6.27958e-05
98 *92:49 *130:18 0
99 *95:25 *130:14 0.000164858
100 *95:25 *130:18 0.000204653
101 *95:75 *130:12 0.000825807
102 *95:75 *130:14 0.00038008
103 *106:44 *130:65 1.30363e-05
104 *108:6 *130:158 1.57659e-05
105 *109:14 *130:107 4.05745e-05
106 *110:109 *130:158 0.000202719
107 *112:34 *130:28 5.42421e-05
108 *118:26 *130:18 0
109 *120:14 *130:28 0.000993009
110 *121:10 *130:141 0
*RES
1 *793:X *130:4 23 
2 *130:4 *130:12 30.8671 
3 *130:12 *130:14 7.54 
4 *130:14 *130:18 23.9486 
5 *130:18 *130:28 49.6164 
6 *130:28 *794:A 23.4971 
7 *130:18 *797:A 27.9093 
8 *130:14 *802:A 38 
9 *130:12 *130:55 28.9821 
10 *130:55 *130:65 43.42 
11 *130:65 *801:A 38 
12 *130:4 *130:78 25.0879 
13 *130:78 *800:A 41.48 
14 *130:78 *130:91 18.3143 
15 *130:91 *130:97 35.2793 
16 *130:97 *130:101 18.9564 
17 *130:101 *130:107 43.5029 
18 *130:107 *130:115 41.89 
19 *130:115 *796:A 41.9564 
20 *130:107 *798:A 43.5929 
21 *130:101 *130:141 48.8086 
22 *130:141 *803:A 23 
23 *130:141 *130:158 48.2079 
24 *130:158 *799:A 23 
25 *130:91 *795:A 23 
*END

*D_NET *131 0.0208972
*CONN
*I *705:A1 I *D sky130_fd_sc_hd__o31ai_1
*I *696:B I *D sky130_fd_sc_hd__and4_1
*I *687:X O *D sky130_fd_sc_hd__and3_1
*CAP
1 *705:A1 6.444e-05
2 *696:B 0
3 *687:X 0.000450673
4 *131:34 0.00096993
5 *131:26 0.00206212
6 *131:24 0.00119885
7 *131:20 0.000516941
8 *131:16 0.0016285
9 *131:10 0.00173333
10 *131:10 *711:A 5.58003e-05
11 *131:10 *760:A1 2.60063e-05
12 *131:10 *141:47 5.82853e-05
13 *131:20 *142:58 0.000720354
14 *131:20 *168:84 0
15 *705:A3 *705:A1 8.17328e-05
16 *705:A3 *131:24 0.0002263
17 *711:C *131:10 6.96657e-05
18 *712:B *131:16 0.000270263
19 *18:12 *131:10 0.00040949
20 *23:10 *131:10 0.000407289
21 *29:20 *131:20 0
22 *29:20 *131:26 0.00325815
23 *33:16 *131:16 5.46171e-05
24 *33:18 *131:20 0
25 *33:18 *131:26 0.00469598
26 *47:10 *131:24 0
27 *47:14 *131:26 0.000602561
28 *75:66 *131:16 0.000472461
29 *78:10 *131:26 0.00030877
30 *94:14 *131:16 0.000108264
31 *112:8 *131:34 0
32 *112:12 *131:34 0.000446433
*RES
1 *687:X *131:10 47.2593 
2 *131:10 *131:16 47.2964 
3 *131:16 *131:20 24.6529 
4 *131:20 *131:24 17.5271 
5 *131:24 *131:26 69.5171 
6 *131:26 *131:34 44.21 
7 *131:34 *696:B 38 
8 *131:20 *705:A1 24.0979 
*END

*D_NET *132 0.0330649
*CONN
*I *711:B I *D sky130_fd_sc_hd__and3_1
*I *713:A I *D sky130_fd_sc_hd__and3_1
*I *690:C I *D sky130_fd_sc_hd__and4_2
*I *715:B I *D sky130_fd_sc_hd__and3_1
*I *780:A1_N I *D sky130_fd_sc_hd__o2bb2a_1
*I *710:A1 I *D sky130_fd_sc_hd__a21oi_1
*I *688:X O *D sky130_fd_sc_hd__and4_2
*CAP
1 *711:B 0
2 *713:A 0.000384271
3 *690:C 0.000148205
4 *715:B 0
5 *780:A1_N 6.03409e-05
6 *710:A1 0.000131124
7 *688:X 0.000585479
8 *132:125 0.000818498
9 *132:93 0.00133444
10 *132:81 0.00390103
11 *132:68 0.00130559
12 *132:56 0.00400005
13 *132:52 0.000971471
14 *132:31 0.00104978
15 *132:20 0.000871415
16 *132:12 0.00135961
17 *132:6 0.00164139
18 *690:C *133:63 3.85196e-05
19 *690:C *134:6 3.91683e-06
20 *690:C *160:16 0.000164007
21 *710:A1 *157:30 1.83408e-05
22 *713:A *718:B1 0.000150518
23 *713:A *825:CLK 1.27424e-05
24 *713:A *133:38 0.000108681
25 *713:A *152:63 1.28035e-05
26 *780:A1_N *144:87 0.000136369
27 *132:6 *154:44 0.000736817
28 *132:6 *155:26 0.000129653
29 *132:12 *155:26 0.000385534
30 *132:12 *157:39 0.000182191
31 *132:20 *734:B 0.000175283
32 *132:20 *142:41 1.56758e-05
33 *132:31 *155:26 0.000793607
34 *132:52 *143:61 0.000137368
35 *132:52 *155:14 0.000171884
36 *132:52 *155:26 1.01436e-05
37 *132:52 *158:16 0.000595176
38 *132:56 *147:26 5.49242e-05
39 *132:56 *148:20 2.90698e-05
40 *132:56 *148:45 4.30894e-05
41 *132:56 *155:14 8.67558e-05
42 *132:68 *133:82 7.03107e-05
43 *132:68 *147:26 0.000403141
44 *132:68 *148:45 0.000149713
45 *132:68 *173:12 2.36931e-05
46 *132:81 *718:B1 1.22803e-05
47 *132:81 *133:82 0.000166012
48 *132:81 *146:53 0.000339969
49 *132:81 *147:26 1.84799e-05
50 *132:81 *152:63 0.000809381
51 *132:81 *153:46 0.000602107
52 *132:81 *160:16 5.45887e-05
53 *132:93 *133:53 2.0058e-05
54 *132:93 *142:170 1.697e-05
55 *132:93 *160:8 5.3304e-05
56 *132:93 *161:8 0.000175903
57 *132:125 *760:A1 0.000135722
58 *132:125 *141:47 0.000892235
59 *132:125 *155:26 7.98243e-05
60 *132:125 *157:39 0.000131463
61 *745:B *132:20 5.58003e-05
62 *780:A2_N *780:A1_N 2.18506e-05
63 *830:RESET_B *132:68 0.000270918
64 *840:RESET_B *132:81 2.19643e-05
65 *840:RESET_B *132:93 4.21733e-05
66 *841:RESET_B *132:93 7.99191e-05
67 *16:10 *132:68 5.58873e-06
68 *19:12 *132:56 6.61938e-05
69 *32:14 *132:93 2.93845e-05
70 *38:30 *132:81 0.000130437
71 *43:44 *132:125 0.00020239
72 *56:16 *132:93 8.4047e-05
73 *57:10 *713:A 0
74 *58:8 *710:A1 5.77113e-06
75 *64:22 *132:81 0
76 *71:10 *132:93 9.41704e-05
77 *82:20 *132:125 0.000111106
78 *82:58 *710:A1 6.17437e-06
79 *83:16 *132:68 0
80 *83:16 *132:81 0
81 *86:28 *132:68 0
82 *86:41 *132:93 0.000110509
83 *87:12 *132:6 4.05745e-05
84 *87:12 *132:12 4.9662e-05
85 *87:12 *132:52 1.01436e-05
86 *87:23 *132:52 0.00080511
87 *87:23 *132:56 8.00504e-05
88 *90:12 *713:A 0.000167449
89 *100:8 *132:20 6.55954e-05
90 *106:44 *132:20 0.000167275
91 *107:10 *132:20 0.000482812
92 *110:16 *132:56 2.63738e-05
93 *110:30 *132:81 1.68284e-05
94 *110:43 *132:81 4.59624e-05
95 *113:24 *132:125 0.000581936
96 *123:47 *132:81 0.00017048
97 *127:20 *780:A1_N 9.41704e-05
98 *129:49 *132:6 0.000756987
99 *129:49 *132:12 9.41704e-05
100 *129:66 *132:12 9.64203e-05
101 *129:66 *132:31 0.000427337
102 *129:66 *132:52 7.6144e-05
103 *130:65 *132:20 0.000560151
*RES
1 *688:X *132:6 36.9614 
2 *132:6 *132:12 21.525 
3 *132:12 *132:20 46.6957 
4 *132:20 *710:A1 39.5743 
5 *132:12 *132:31 11.0614 
6 *132:31 *780:A1_N 39.5898 
7 *132:31 *132:52 44.8625 
8 *132:52 *132:56 14.6079 
9 *132:56 *132:68 29.4625 
10 *132:68 *715:B 23 
11 *132:56 *132:81 23.2546 
12 *132:81 *132:93 45.3286 
13 *132:93 *690:C 40.7757 
14 *132:81 *713:A 46.0786 
15 *132:6 *132:125 49.6993 
16 *132:125 *711:B 23 
*END

*D_NET *133 0.0197179
*CONN
*I *715:C I *D sky130_fd_sc_hd__and3_1
*I *690:D I *D sky130_fd_sc_hd__and4_2
*I *713:B I *D sky130_fd_sc_hd__and3_1
*I *689:X O *D sky130_fd_sc_hd__and2_1
*CAP
1 *715:C 0
2 *690:D 0
3 *713:B 0
4 *689:X 0.00015589
5 *133:90 9.50957e-05
6 *133:82 0.00160013
7 *133:63 0.000258414
8 *133:53 0.00166061
9 *133:38 0.000109121
10 *133:30 0.00164144
11 *133:26 0.000853301
12 *133:18 0.001205
13 *133:10 0.00236406
14 *133:8 0.000533104
15 *133:8 *158:20 9.58714e-05
16 *133:8 *158:37 9.5877e-05
17 *133:10 *145:72 0.000549855
18 *133:10 *148:58 0.00053343
19 *133:10 *173:25 0.00015835
20 *133:18 *156:71 0.00010896
21 *133:18 *167:58 0.000213383
22 *133:18 *168:60 0.000135037
23 *133:26 *151:18 0.000181411
24 *133:26 *166:71 0.000183652
25 *133:30 *834:CLK 0.000434845
26 *133:30 *168:26 0.000432513
27 *133:38 *718:B1 0.000108681
28 *133:38 *772:B1 5.3304e-05
29 *133:53 *816:CLK 5.3304e-05
30 *133:53 *825:CLK 3.47781e-05
31 *133:53 *834:CLK 0.000127408
32 *133:53 *140:71 0.000159938
33 *133:53 *142:170 0.00022822
34 *133:53 *161:8 8.06804e-06
35 *133:53 *168:26 0.000175903
36 *133:63 *134:6 3.66555e-05
37 *133:63 *134:80 3.05299e-05
38 *133:63 *169:69 0.000278634
39 *133:82 *145:72 0.000118017
40 *133:82 *159:37 0.000135037
41 *133:82 *168:74 4.6954e-05
42 *133:82 *168:82 0.000107663
43 *133:90 *715:A 2.12505e-05
44 *133:90 *172:12 4.587e-05
45 *690:C *133:63 3.85196e-05
46 *713:A *133:38 0.000108681
47 *796:A *133:82 0.000353146
48 *818:RESET_B *133:10 5.92738e-07
49 *824:RESET_B *133:18 0.0005866
50 *841:RESET_B *133:53 0.000296598
51 *26:18 *133:82 4.45839e-05
52 *29:16 *133:82 0.000354146
53 *31:14 *133:90 2.78373e-05
54 *31:22 *133:26 0.000615438
55 *34:14 *133:10 2.19562e-05
56 *39:10 *133:63 0
57 *53:6 *133:82 3.47781e-05
58 *61:10 *133:53 8.62876e-05
59 *64:22 *133:82 0
60 *91:22 *133:82 0.000510479
61 *95:75 *133:53 4.34078e-05
62 *99:14 *133:10 8.39918e-05
63 *99:14 *133:82 4.62887e-05
64 *109:14 *133:18 3.26321e-05
65 *116:20 *133:18 0.000581199
66 *123:47 *133:10 4.30894e-05
67 *123:57 *133:18 7.0127e-05
68 *128:123 *133:18 5.79438e-05
69 *129:141 *133:26 5.36548e-05
70 *132:68 *133:82 7.03107e-05
71 *132:81 *133:82 0.000166012
72 *132:93 *133:53 2.0058e-05
*RES
1 *689:X *133:8 40.0507 
2 *133:8 *133:10 10.7093 
3 *133:10 *133:18 43.6921 
4 *133:18 *133:26 41.3307 
5 *133:26 *133:30 19.9093 
6 *133:30 *133:38 32.175 
7 *133:38 *713:B 23 
8 *133:30 *133:53 49.575 
9 *133:53 *133:63 36.2143 
10 *133:63 *690:D 23 
11 *133:10 *133:82 46.1461 
12 *133:82 *133:90 31.7814 
13 *133:90 *715:C 23 
*END

*D_NET *134 0.0235213
*CONN
*I *717:A I *D sky130_fd_sc_hd__nand2_1
*I *702:C I *D sky130_fd_sc_hd__nand4b_2
*I *696:C I *D sky130_fd_sc_hd__and4_1
*I *704:A2 I *D sky130_fd_sc_hd__a31o_1
*I *706:C I *D sky130_fd_sc_hd__and4_1
*I *690:X O *D sky130_fd_sc_hd__and4_2
*CAP
1 *717:A 0
2 *702:C 0.000141616
3 *696:C 0
4 *704:A2 0
5 *706:C 8.81957e-05
6 *690:X 0
7 *134:80 0.00134037
8 *134:54 0.000792764
9 *134:43 0.000837383
10 *134:31 0.0038189
11 *134:25 0.0025866
12 *134:21 0.000703553
13 *134:6 0.00082769
14 *134:4 0.00163255
15 *702:C *772:B1 4.96717e-05
16 *702:C *169:75 4.96717e-05
17 *134:6 *160:16 2.60159e-05
18 *134:21 *144:16 0.000106814
19 *134:31 *162:12 0.00078516
20 *134:43 *135:22 1.02387e-05
21 *134:43 *135:30 0.000220592
22 *134:43 *136:55 0.000214862
23 *134:43 *139:98 0.000251094
24 *134:43 *155:14 9.74679e-05
25 *134:43 *161:60 0.000281659
26 *134:54 *696:A 0
27 *134:54 *829:CLK 0.000199943
28 *134:54 *139:98 0.000183142
29 *134:54 *170:16 0.000750597
30 *134:80 *147:10 0.000731165
31 *134:80 *162:58 0
32 *134:80 *169:69 0.000323533
33 *690:C *134:6 3.91683e-06
34 *755:B *134:54 2.52012e-05
35 *798:A *134:43 0.00027772
36 *828:RESET_B *134:80 0
37 *5:13 *134:31 0.000793701
38 *19:12 *134:43 9.26434e-05
39 *19:12 *134:54 0.000351045
40 *22:10 *134:25 0.000107909
41 *39:10 *134:80 0
42 *64:12 *134:80 0.00110245
43 *64:22 *134:80 0
44 *71:16 *134:21 8.65441e-05
45 *77:58 *706:C 5.3304e-05
46 *77:69 *706:C 4.08664e-05
47 *77:69 *134:6 5.3304e-05
48 *77:69 *134:21 0.000106814
49 *82:154 *702:C 0.000245347
50 *82:154 *134:25 0.00040464
51 *83:16 *134:25 1.79747e-05
52 *91:73 *134:31 9.22881e-05
53 *93:12 *134:31 8.84148e-05
54 *110:85 *134:54 0.000750597
55 *121:10 *702:C 0.000252962
56 *121:10 *134:25 0.00054981
57 *127:12 *134:43 0.000604588
58 *130:101 *134:21 0.00021677
59 *130:107 *134:43 8.4047e-05
60 *133:63 *134:6 3.66555e-05
61 *133:63 *134:80 3.05299e-05
*RES
1 *690:X *134:4 23 
2 *134:4 *134:6 3.95643 
3 *134:6 *706:C 24.0979 
4 *134:6 *134:21 37.4157 
5 *134:21 *134:25 22.7161 
6 *134:25 *134:31 21.2939 
7 *134:31 *134:43 35.7868 
8 *134:43 *704:A2 23 
9 *134:31 *134:54 38.0032 
10 *134:54 *696:C 23 
11 *134:25 *702:C 42.5882 
12 *134:4 *134:80 46.9414 
13 *134:80 *717:A 38 
*END

*D_NET *135 0.0234096
*CONN
*I *763:A I *D sky130_fd_sc_hd__nand2_1
*I *768:C I *D sky130_fd_sc_hd__and4_1
*I *770:D I *D sky130_fd_sc_hd__and4_1
*I *695:A I *D sky130_fd_sc_hd__and4_2
*I *691:X O *D sky130_fd_sc_hd__and4_1
*CAP
1 *763:A 2.43873e-05
2 *768:C 0.000283759
3 *770:D 2.39682e-05
4 *695:A 0.000222596
5 *691:X 0.000920142
6 *135:62 0.00207283
7 *135:60 0.00216189
8 *135:30 0.00106271
9 *135:22 0.00156463
10 *135:14 0.000618622
11 *135:6 0.00113872
12 *695:A *150:24 1.75582e-05
13 *768:C *768:B 2.64616e-05
14 *768:C *149:34 2.83595e-05
15 *770:D *150:24 2.02872e-05
16 *135:6 *172:26 0.00193655
17 *135:14 *136:49 0.000166981
18 *135:14 *145:72 0.000138727
19 *135:22 *136:49 0.000350824
20 *135:22 *136:55 1.12487e-05
21 *135:22 *139:76 0.000308251
22 *135:22 *155:14 0.000480852
23 *135:30 *766:A 1.358e-05
24 *135:30 *139:48 2.03764e-06
25 *135:30 *161:60 2.193e-05
26 *135:60 *139:12 0.000104214
27 *135:60 *139:14 8.57485e-05
28 *135:62 *820:CLK 2.24973e-05
29 *135:62 *139:14 0.0002084
30 *135:62 *143:90 0.000943481
31 *135:62 *145:18 1.66706e-05
32 *135:62 *150:48 1.52362e-05
33 *709:A2 *695:A 5.12055e-06
34 *766:B *135:60 0.000349249
35 *19:8 *135:60 5.56279e-05
36 *19:12 *135:22 0.000536284
37 *21:20 *135:62 0.0008366
38 *43:14 *135:6 0.0004335
39 *44:8 *135:6 0.000718572
40 *53:12 *135:14 0.000164291
41 *70:12 *695:A 4.79132e-05
42 *74:14 *135:30 2.92911e-06
43 *75:44 *695:A 9.77405e-05
44 *77:10 *695:A 9.03364e-06
45 *77:22 *135:30 0.000246118
46 *82:85 *135:30 0.000268158
47 *83:22 *695:A 1.21972e-05
48 *87:23 *695:A 0.000116292
49 *87:23 *770:D 5.3304e-05
50 *94:10 *135:62 2.35393e-05
51 *96:20 *768:C 1.76149e-05
52 *97:8 *768:C 5.07601e-05
53 *97:14 *135:62 0
54 *99:8 *135:14 4.67488e-05
55 *101:14 *135:62 0.00196184
56 *109:14 *135:14 0.00026025
57 *109:18 *135:60 5.92708e-05
58 *109:18 *135:62 0.000858436
59 *110:122 *135:62 0.000606388
60 *110:164 *135:62 7.79175e-05
61 *111:14 *135:30 3.96108e-05
62 *113:24 *135:62 0.000104065
63 *116:20 *135:14 1.22803e-05
64 *119:8 *135:60 3.46013e-05
65 *123:30 *135:62 9.20311e-06
66 *130:107 *135:14 3.34129e-05
67 *130:107 *135:22 1.5769e-05
68 *134:43 *135:22 1.02387e-05
69 *134:43 *135:30 0.000220592
*RES
1 *691:X *135:6 45.0607 
2 *135:6 *135:14 36.2143 
3 *135:14 *135:22 41.4964 
4 *135:22 *135:30 42.035 
5 *135:30 *695:A 28.0957 
6 *135:30 *770:D 23.6214 
7 *135:22 *135:60 22.685 
8 *135:60 *135:62 48.3886 
9 *135:62 *768:C 42.8057 
10 *135:14 *763:A 23.4971 
*END

*D_NET *136 0.0131437
*CONN
*I *846:A I *D sky130_fd_sc_hd__clkbuf_16
*I *847:A I *D sky130_fd_sc_hd__clkbuf_16
*I *845:A I *D sky130_fd_sc_hd__clkbuf_16
*I *844:A I *D sky130_fd_sc_hd__clkbuf_16
*I *843:X O *D sky130_fd_sc_hd__clkbuf_16
*CAP
1 *846:A 0
2 *847:A 0
3 *845:A 0
4 *844:A 0.000338168
5 *843:X 1.87926e-05
6 *136:55 9.50904e-05
7 *136:49 0.000899519
8 *136:32 0.00178643
9 *136:14 0.00122018
10 *136:8 0.0018828
11 *844:A *144:45 0.000151675
12 *136:8 *142:162 2.93335e-05
13 *136:8 *173:31 5.56279e-05
14 *136:14 *144:45 9.58908e-05
15 *136:14 *151:12 1.22093e-05
16 *136:32 *146:53 0.000143695
17 *136:32 *146:72 0.000248782
18 *136:32 *147:45 0.000284055
19 *136:32 *151:12 0.000147499
20 *136:32 *158:43 0
21 *136:49 *733:A 5.56356e-05
22 *136:49 *733:B 0.000125909
23 *136:49 *139:76 2.32004e-05
24 *136:49 *139:85 9.8971e-06
25 *136:49 *155:8 5.3304e-05
26 *136:49 *163:22 8.04817e-05
27 *136:55 *155:14 0.000187986
28 *831:RESET_B *844:A 9.04078e-05
29 *24:16 *136:32 0
30 *41:10 *136:14 0.000349684
31 *41:10 *136:32 0.00013449
32 *43:38 *136:14 0.000334096
33 *46:8 *844:A 5.50049e-05
34 *55:26 *136:14 0.00103244
35 *78:22 *844:A 7.43209e-05
36 *89:36 *136:32 0.000540656
37 *91:30 *136:32 1.59094e-05
38 *91:30 *136:49 8.06804e-06
39 *109:14 *136:49 0.000221997
40 *110:58 *136:49 8.25811e-05
41 *126:26 *136:14 0
42 *126:26 *136:32 0
43 *126:61 *136:14 0
44 *129:10 *844:A 0.000400403
45 *129:10 *136:14 0.000188927
46 *130:107 *136:32 2.02872e-05
47 *130:107 *136:49 0.000904399
48 *134:43 *136:55 0.000214862
49 *135:14 *136:49 0.000166981
50 *135:22 *136:49 0.000350824
51 *135:22 *136:55 1.12487e-05
*RES
1 *843:X *136:8 38.6214 
2 *136:8 *136:14 36.5636 
3 *136:14 *844:A 30.7679 
4 *136:14 *845:A 23 
5 *136:8 *136:32 35.4864 
6 *136:32 *847:A 23 
7 *136:32 *136:49 48.6636 
8 *136:49 *136:55 32.9621 
9 *136:55 *846:A 23 
*END

*D_NET *137 0.0151347
*CONN
*I *848:A I *D sky130_fd_sc_hd__clkbuf_4
*I *833:CLK I *D sky130_fd_sc_hd__dfrtp_2
*I *822:CLK I *D sky130_fd_sc_hd__dfrtp_2
*I *823:CLK I *D sky130_fd_sc_hd__dfrtp_4
*I *837:CLK I *D sky130_fd_sc_hd__dfrtp_1
*I *815:CLK I *D sky130_fd_sc_hd__dfrtp_4
*I *838:CLK I *D sky130_fd_sc_hd__dfrtp_1
*I *831:CLK I *D sky130_fd_sc_hd__dfrtp_1
*I *844:X O *D sky130_fd_sc_hd__clkbuf_16
*CAP
1 *848:A 4.62547e-05
2 *833:CLK 1.66872e-05
3 *822:CLK 6.02559e-05
4 *823:CLK 0.000394079
5 *837:CLK 0
6 *815:CLK 7.88492e-05
7 *838:CLK 0
8 *831:CLK 0.000557854
9 *844:X 7.33026e-05
10 *137:70 0.000581927
11 *137:66 0.000328018
12 *137:64 0.000400183
13 *137:55 0.000466574
14 *137:35 0.00121936
15 *137:27 0.00151805
16 *137:25 0.000686415
17 *137:10 0.000947058
18 *137:8 0.000632697
19 *822:CLK *165:6 4.9662e-05
20 *823:CLK *166:22 0.000848483
21 *831:CLK *157:30 5.1664e-05
22 *833:CLK *146:20 2.30292e-05
23 *137:8 *157:30 2.02872e-05
24 *137:10 *157:30 7.49319e-05
25 *137:35 *146:20 8.4047e-05
26 *137:35 *164:34 8.11802e-06
27 *137:55 *167:16 0.000215782
28 *137:64 *150:10 0.000139568
29 *137:64 *166:22 0.000297609
30 *137:66 *166:22 0.000202358
31 *137:70 *166:22 0.000180403
32 *705:B1 *815:CLK 0.000137651
33 *712:B *823:CLK 0.000148736
34 *831:RESET_B *137:10 2.69815e-05
35 *838:D *137:35 4.03039e-05
36 *838:RESET_B *137:35 0.000125241
37 *18:12 *823:CLK 4.92308e-05
38 *18:12 *137:66 0.000122663
39 *18:12 *137:70 5.16366e-05
40 *27:16 *137:64 6.84739e-05
41 *27:16 *137:66 5.00353e-05
42 *36:18 *823:CLK 0.000121268
43 *36:18 *137:70 3.41998e-06
44 *66:14 *822:CLK 0.000105921
45 *72:6 *815:CLK 7.15126e-05
46 *75:56 *137:27 0.000258825
47 *75:56 *137:55 0.000924754
48 *75:58 *137:27 0.000186804
49 *75:58 *137:35 0.000279476
50 *75:66 *137:35 0.000108681
51 *82:10 *137:35 9.5877e-05
52 *82:46 *137:27 0.000180329
53 *82:46 *137:35 0.000140692
54 *82:67 *137:27 2.15575e-05
55 *82:67 *137:55 8.77813e-05
56 *87:12 *848:A 0.000137651
57 *89:8 *823:CLK 0.000192276
58 *100:16 *137:55 0.000963054
59 *104:12 *833:CLK 2.93845e-05
60 *105:6 *848:A 0.000137651
61 *120:20 *823:CLK 6.33771e-05
*RES
1 *844:X *137:8 24.1186 
2 *137:8 *137:10 4.43286 
3 *137:10 *831:CLK 30.0014 
4 *137:10 *137:25 15 
5 *137:25 *137:27 6.13143 
6 *137:27 *137:35 32.3793 
7 *137:35 *838:CLK 23 
8 *137:27 *815:CLK 40.0714 
9 *137:25 *137:55 30.9914 
10 *137:55 *837:CLK 23 
11 *137:8 *137:64 19.3707 
12 *137:64 *137:66 5.075 
13 *137:66 *137:70 3.23143 
14 *137:70 *823:CLK 49.7657 
15 *137:70 *822:CLK 39.595 
16 *137:66 *833:CLK 38.6214 
17 *137:64 *848:A 39.5743 
*END

*D_NET *138 0.00909115
*CONN
*I *826:CLK I *D sky130_fd_sc_hd__dfrtp_2
*I *849:A I *D sky130_fd_sc_hd__clkbuf_4
*I *813:CLK I *D sky130_fd_sc_hd__dfrtp_4
*I *839:CLK I *D sky130_fd_sc_hd__dfrtp_1
*I *835:CLK I *D sky130_fd_sc_hd__dfrtp_2
*I *827:CLK I *D sky130_fd_sc_hd__dfrtp_1
*I *832:CLK I *D sky130_fd_sc_hd__dfrtp_1
*I *821:CLK I *D sky130_fd_sc_hd__dfrtp_2
*I *845:X O *D sky130_fd_sc_hd__clkbuf_16
*CAP
1 *826:CLK 0.000138863
2 *849:A 0
3 *813:CLK 0
4 *839:CLK 0.000169697
5 *835:CLK 0
6 *827:CLK 5.31731e-05
7 *832:CLK 2.75595e-05
8 *821:CLK 0
9 *845:X 0
10 *138:77 0.000440856
11 *138:65 0.0007522
12 *138:63 0.000537462
13 *138:34 5.31731e-05
14 *138:18 0.000509587
15 *138:12 0.000791432
16 *138:10 0.000413371
17 *138:8 0.000531214
18 *138:6 0.000289686
19 *827:CLK *154:8 4.94879e-05
20 *839:CLK *159:8 4.02868e-05
21 *138:8 *152:50 0.000133689
22 *138:10 *152:35 4.79458e-06
23 *138:10 *154:27 4.44237e-05
24 *138:12 *778:A 9.22398e-05
25 *138:12 *154:27 2.99716e-05
26 *138:18 *778:A 6.78224e-05
27 *138:63 *152:50 5.45652e-05
28 *739:A_N *832:CLK 3.71251e-05
29 *777:A *138:77 1.83408e-05
30 *813:D *138:77 9.41553e-05
31 *832:D *832:CLK 9.94357e-05
32 *839:D *839:CLK 7.43624e-05
33 *35:6 *138:18 0.000323326
34 *38:8 *138:18 3.26241e-05
35 *38:18 *138:8 5.04424e-05
36 *38:18 *138:10 0.00012758
37 *38:18 *138:12 0.000194559
38 *38:18 *138:18 0.000179775
39 *38:18 *138:63 6.03228e-05
40 *40:14 *826:CLK 0.000254922
41 *40:14 *138:65 0.000547027
42 *40:14 *138:77 0.000143259
43 *59:10 *839:CLK 0.000268178
44 *59:10 *138:8 0.000312123
45 *59:10 *138:10 1.14452e-05
46 *96:8 *827:CLK 7.59161e-05
47 *116:59 *138:77 0.000128341
48 *126:49 *138:77 0.000317853
49 *126:61 *138:77 0.000298172
50 *128:34 *138:8 0.000123698
51 *128:34 *138:10 9.26098e-05
*RES
1 *845:X *138:6 38 
2 *138:6 *138:8 5.77929 
3 *138:8 *138:10 3.66643 
4 *138:10 *138:12 5.77929 
5 *138:12 *138:18 27.1179 
6 *138:18 *821:CLK 23 
7 *138:12 *832:CLK 39.0979 
8 *138:10 *138:34 15 
9 *138:34 *827:CLK 24.5743 
10 *138:34 *835:CLK 23 
11 *138:8 *839:CLK 42.4743 
12 *138:6 *138:63 16.9057 
13 *138:63 *138:65 6.33857 
14 *138:65 *138:77 40.9371 
15 *138:77 *813:CLK 23 
16 *138:65 *849:A 23 
17 *138:63 *826:CLK 26.0036 
*END

*D_NET *139 0.0168112
*CONN
*I *829:CLK I *D sky130_fd_sc_hd__dfrtp_2
*I *819:CLK I *D sky130_fd_sc_hd__dfrtp_2
*I *836:CLK I *D sky130_fd_sc_hd__dfrtp_1
*I *850:A I *D sky130_fd_sc_hd__clkbuf_4
*I *830:CLK I *D sky130_fd_sc_hd__dfrtp_1
*I *818:CLK I *D sky130_fd_sc_hd__dfrtp_2
*I *817:CLK I *D sky130_fd_sc_hd__dfrtp_2
*I *820:CLK I *D sky130_fd_sc_hd__dfrtp_1
*I *846:X O *D sky130_fd_sc_hd__clkbuf_16
*CAP
1 *829:CLK 0.000250032
2 *819:CLK 0
3 *836:CLK 0.000940136
4 *850:A 0
5 *830:CLK 4.87566e-05
6 *818:CLK 7.23398e-05
7 *817:CLK 0
8 *820:CLK 0.000354949
9 *846:X 0.000184191
10 *139:98 0.000756897
11 *139:85 0.00158381
12 *139:76 0.000370963
13 *139:48 0.000543088
14 *139:35 0.000578635
15 *139:14 0.00127603
16 *139:12 0.000982543
17 *139:10 0.000368731
18 *139:8 0.000568975
19 *820:CLK *166:47 8.50169e-05
20 *829:CLK *696:A 5.54905e-05
21 *829:CLK *141:94 5.58003e-05
22 *829:CLK *161:67 4.40447e-05
23 *830:CLK *168:74 5.14826e-05
24 *836:CLK *155:8 1.17164e-05
25 *836:CLK *172:12 1.11112e-05
26 *139:35 *689:A 9.41704e-05
27 *139:35 *158:20 6.08617e-05
28 *139:48 *766:A 5.43544e-05
29 *139:48 *148:24 7.0209e-05
30 *139:48 *148:56 3.75842e-05
31 *139:48 *150:35 0.000108892
32 *139:48 *161:60 3.20631e-05
33 *139:85 *155:8 2.03764e-06
34 *735:A *139:35 1.14154e-05
35 *750:A *820:CLK 5.3304e-05
36 *754:B *830:CLK 3.86731e-05
37 *762:A1 *818:CLK 2.8661e-05
38 *836:RESET_B *836:CLK 4.70852e-05
39 *837:RESET_B *820:CLK 0.000387372
40 *26:18 *836:CLK 0.000216681
41 *29:6 *830:CLK 9.79925e-05
42 *53:6 *139:8 0.00022109
43 *55:14 *139:10 0.000220337
44 *55:14 *139:12 0.000283744
45 *55:14 *139:48 5.56279e-05
46 *55:14 *139:76 0.000150437
47 *82:77 *139:35 3.22879e-05
48 *87:23 *818:CLK 9.41704e-05
49 *92:38 *829:CLK 2.26497e-05
50 *97:26 *820:CLK 0.000138607
51 *97:26 *139:35 0.000186684
52 *99:14 *139:35 0.000979136
53 *99:18 *139:35 2.93845e-05
54 *101:14 *820:CLK 0.000313795
55 *109:18 *139:76 1.9455e-05
56 *110:16 *820:CLK 0.000363064
57 *110:16 *139:12 6.57602e-06
58 *110:16 *139:14 0.000352487
59 *119:8 *139:10 9.86109e-05
60 *119:8 *139:12 9.06618e-05
61 *119:8 *139:76 4.08641e-05
62 *127:12 *829:CLK 2.54758e-05
63 *127:12 *139:98 0.000941456
64 *127:20 *139:48 4.56456e-05
65 *130:107 *139:76 0.000164391
66 *134:43 *139:98 0.000251094
67 *134:54 *829:CLK 0.000199943
68 *134:54 *139:98 0.000183142
69 *135:22 *139:76 0.000308251
70 *135:30 *139:48 2.03764e-06
71 *135:60 *139:12 0.000104214
72 *135:60 *139:14 8.57485e-05
73 *135:62 *820:CLK 2.24973e-05
74 *135:62 *139:14 0.0002084
75 *136:49 *139:76 2.32004e-05
76 *136:49 *139:85 9.8971e-06
*RES
1 *846:X *139:8 40.5271 
2 *139:8 *139:10 3.31429 
3 *139:10 *139:12 4.37071 
4 *139:12 *139:14 7.89214 
5 *139:14 *820:CLK 48.005 
6 *139:14 *139:35 27.6979 
7 *139:35 *817:CLK 23 
8 *139:12 *139:48 36.9393 
9 *139:48 *818:CLK 39.595 
10 *139:10 *830:CLK 39.595 
11 *139:8 *139:76 21.2143 
12 *139:76 *850:A 23 
13 *139:76 *139:85 1.94714 
14 *139:85 *836:CLK 34.9521 
15 *139:85 *139:98 28.1743 
16 *139:98 *819:CLK 38 
17 *139:98 *829:CLK 44.4007 
*END

*D_NET *140 0.01463
*CONN
*I *825:CLK I *D sky130_fd_sc_hd__dfrtp_4
*I *816:CLK I *D sky130_fd_sc_hd__dfrtp_4
*I *834:CLK I *D sky130_fd_sc_hd__dfrtp_1
*I *841:CLK I *D sky130_fd_sc_hd__dfrtp_2
*I *840:CLK I *D sky130_fd_sc_hd__dfrtp_1
*I *824:CLK I *D sky130_fd_sc_hd__dfrtp_1
*I *828:CLK I *D sky130_fd_sc_hd__dfrtp_1
*I *814:CLK I *D sky130_fd_sc_hd__dfrtp_4
*I *847:X O *D sky130_fd_sc_hd__clkbuf_16
*CAP
1 *825:CLK 0.000376809
2 *816:CLK 0.000166332
3 *834:CLK 0.000303572
4 *841:CLK 0
5 *840:CLK 0
6 *824:CLK 3.70684e-05
7 *828:CLK 0.000394327
8 *814:CLK 0.000685566
9 *847:X 0
10 *140:73 0.000469905
11 *140:71 0.000540981
12 *140:62 0.000311367
13 *140:51 6.86221e-05
14 *140:45 0.000416075
15 *140:30 0.000668097
16 *140:26 0.000549247
17 *140:10 0.0014908
18 *140:6 0.000529381
19 *814:CLK *158:37 0.000137368
20 *816:CLK *168:26 0.000150964
21 *825:CLK *718:B1 2.42618e-05
22 *834:CLK *168:26 0.000133402
23 *140:30 *776:A 6.70361e-05
24 *140:30 *153:46 8.73233e-05
25 *140:30 *160:16 0.000140931
26 *140:45 *146:72 2.81216e-05
27 *140:45 *151:18 0.000132142
28 *140:45 *166:71 6.92184e-05
29 *140:51 *147:45 0
30 *140:71 *718:B1 7.66726e-05
31 *713:A *825:CLK 1.27424e-05
32 *825:RESET_B *825:CLK 0.000221992
33 *828:D *828:CLK 0.000175903
34 *840:RESET_B *140:10 0.00021731
35 *840:RESET_B *140:26 0.000104117
36 *840:RESET_B *140:62 0.000146729
37 *840:RESET_B *140:71 4.96168e-05
38 *20:12 *140:10 0.000554666
39 *24:16 *140:51 1.76335e-05
40 *38:30 *824:CLK 4.96717e-05
41 *38:30 *140:30 4.6595e-05
42 *43:8 *140:51 6.07611e-06
43 *57:10 *825:CLK 0
44 *61:10 *140:10 0.00101769
45 *61:10 *140:26 0.000238193
46 *61:10 *140:62 0.000128353
47 *61:10 *140:71 3.36034e-05
48 *71:22 *814:CLK 0.000624075
49 *71:22 *828:CLK 0.000127754
50 *77:37 *140:30 6.4725e-05
51 *81:61 *825:CLK 9.47033e-05
52 *86:14 *824:CLK 9.67842e-05
53 *86:14 *140:30 0.000299719
54 *89:36 *814:CLK 0.000188769
55 *91:73 *825:CLK 2.39911e-05
56 *93:12 *825:CLK 0.000120728
57 *95:75 *825:CLK 8.5772e-05
58 *112:34 *140:10 0.000149785
59 *126:16 *814:CLK 9.41704e-05
60 *128:105 *816:CLK 7.15126e-05
61 *128:115 *816:CLK 0.000105913
62 *128:115 *834:CLK 0.00042998
63 *128:115 *140:51 3.41998e-06
64 *129:141 *140:45 0.000161405
65 *133:30 *834:CLK 0.000434845
66 *133:53 *816:CLK 5.3304e-05
67 *133:53 *825:CLK 3.47781e-05
68 *133:53 *834:CLK 0.000127408
69 *133:53 *140:71 0.000159938
*RES
1 *847:X *140:6 38 
2 *140:6 *140:10 28.8786 
3 *140:10 *814:CLK 37.4379 
4 *140:10 *828:CLK 29.3386 
5 *140:6 *140:26 3.31429 
6 *140:26 *140:30 21.815 
7 *140:30 *824:CLK 24.0979 
8 *140:30 *140:45 35.3857 
9 *140:45 *140:51 31.2014 
10 *140:51 *840:CLK 23 
11 *140:26 *140:62 3.37643 
12 *140:62 *841:CLK 38 
13 *140:62 *140:71 3.31429 
14 *140:71 *140:73 15 
15 *140:73 *834:CLK 32.1971 
16 *140:73 *816:CLK 26.9564 
17 *140:71 *825:CLK 45.9543 
*END

*D_NET *141 0.0367423
*CONN
*I *723:A I *D sky130_fd_sc_hd__nand2_1
*I *700:A I *D sky130_fd_sc_hd__nor2_1
*I *706:A I *D sky130_fd_sc_hd__and4_1
*I *698:A2 I *D sky130_fd_sc_hd__a21oi_1
*I *687:C I *D sky130_fd_sc_hd__and3_1
*I *708:A I *D sky130_fd_sc_hd__inv_2
*I *813:Q O *D sky130_fd_sc_hd__dfrtp_4
*CAP
1 *723:A 1.56432e-05
2 *700:A 0
3 *706:A 2.32701e-05
4 *698:A2 0
5 *687:C 0
6 *708:A 0
7 *813:Q 0
8 *141:111 0.000690557
9 *141:100 0.000145306
10 *141:94 0.00128716
11 *141:92 0.00193005
12 *141:79 0.00179524
13 *141:71 0.00216622
14 *141:64 0.00130555
15 *141:47 0.000865087
16 *141:37 0.0026277
17 *141:24 0.000382994
18 *141:14 0.00223886
19 *141:12 0.00165824
20 *141:4 0.000766976
21 *706:A *160:16 5.3304e-05
22 *141:12 *738:B1 7.47317e-05
23 *141:12 *159:21 8.50442e-05
24 *141:12 *163:39 2.3963e-05
25 *141:14 *145:49 0.00146223
26 *141:24 *144:87 9.41704e-05
27 *141:24 *158:16 0.000330679
28 *141:37 *150:48 0.000165369
29 *141:37 *157:14 0.000679603
30 *141:47 *687:B 8.78765e-06
31 *141:47 *760:A1 5.45644e-05
32 *141:47 *146:14 4.15526e-05
33 *141:47 *150:48 0.00042201
34 *141:47 *152:16 0
35 *141:47 *169:37 7.0199e-05
36 *141:64 *142:41 2.27197e-05
37 *141:64 *142:45 4.96207e-05
38 *141:64 *164:47 9.83712e-06
39 *141:64 *164:79 4.15283e-06
40 *141:71 *738:B1 0.000217916
41 *141:79 *142:170 0.00134361
42 *141:79 *169:54 0.000918485
43 *141:92 *161:21 3.21926e-05
44 *141:92 *165:81 1.0092e-05
45 *141:92 *168:12 0.000142418
46 *141:94 *748:C 0.000347879
47 *141:94 *148:10 3.21743e-05
48 *141:94 *166:71 9.86777e-06
49 *141:94 *167:60 0.000218464
50 *141:111 *738:B1 3.79658e-05
51 *141:111 *144:30 0.000283276
52 *141:111 *169:10 0.000937424
53 *141:111 *169:54 0.000593818
54 *756:B *141:47 2.33476e-05
55 *773:B *706:A 5.3304e-05
56 *774:B *141:47 1.40087e-05
57 *777:A *141:12 5.56356e-05
58 *780:A2_N *141:24 9.41704e-05
59 *816:RESET_B *141:79 0.00035917
60 *816:RESET_B *141:92 0.000356625
61 *829:CLK *141:94 5.58003e-05
62 *829:RESET_B *141:94 0.00068777
63 *835:RESET_B *723:A 5.67058e-05
64 *5:19 *141:79 0.000132486
65 *21:20 *141:64 0.00030964
66 *43:44 *141:14 1.87138e-05
67 *43:44 *141:24 9.6788e-06
68 *43:44 *141:37 7.32852e-07
69 *43:44 *141:47 6.29608e-05
70 *47:10 *141:64 4.05745e-05
71 *49:10 *141:79 0.000773712
72 *73:12 *141:111 0.000942082
73 *73:18 *141:79 0.000413215
74 *73:18 *141:92 0.000418649
75 *76:8 *141:64 5.56279e-05
76 *80:45 *141:100 5.75756e-06
77 *82:20 *141:47 2.88975e-05
78 *82:58 *141:64 1.58287e-05
79 *87:12 *141:24 0.000329718
80 *87:12 *141:37 0.00020367
81 *91:54 *141:79 0.000144743
82 *91:54 *141:111 0.00011192
83 *95:37 *141:64 0.000633289
84 *95:53 *141:64 0
85 *96:8 *723:A 1.94812e-05
86 *101:14 *141:37 0.000348035
87 *108:6 *141:94 0.00183869
88 *110:109 *141:92 0
89 *119:23 *141:79 0
90 *121:10 *141:92 0
91 *123:71 *141:92 0
92 *124:8 *141:92 0
93 *130:158 *141:92 0
94 *130:158 *141:94 0.000500161
95 *131:10 *141:47 5.82853e-05
96 *132:125 *141:47 0.000892235
*RES
1 *813:Q *141:4 23 
2 *141:4 *141:12 35.1371 
3 *141:12 *141:14 19.2021 
4 *141:14 *141:24 37.395 
5 *141:24 *708:A 23 
6 *141:14 *141:37 28.4125 
7 *141:37 *141:47 34.8754 
8 *141:47 *687:C 23 
9 *141:37 *141:64 35.6991 
10 *141:64 *698:A2 23 
11 *141:4 *141:71 7.76786 
12 *141:71 *141:79 46.5479 
13 *141:79 *706:A 38.6214 
14 *141:79 *141:92 32.0479 
15 *141:92 *141:94 37.7829 
16 *141:94 *141:100 32.9621 
17 *141:100 *700:A 23 
18 *141:71 *141:111 37.1436 
19 *141:111 *723:A 38.6214 
*END

*D_NET *142 0.0353985
*CONN
*I *707:A I *D sky130_fd_sc_hd__xor2_1
*I *699:B I *D sky130_fd_sc_hd__or3b_2
*I *729:B I *D sky130_fd_sc_hd__or3_1
*I *725:A2 I *D sky130_fd_sc_hd__a2111o_1
*I *724:A I *D sky130_fd_sc_hd__nor2_1
*I *687:B I *D sky130_fd_sc_hd__and3_1
*I *731:A1 I *D sky130_fd_sc_hd__a21boi_1
*I *698:A1 I *D sky130_fd_sc_hd__a21oi_1
*I *727:A2 I *D sky130_fd_sc_hd__o21a_1
*I *814:Q O *D sky130_fd_sc_hd__dfrtp_4
*CAP
1 *707:A 0
2 *699:B 0.000195033
3 *729:B 0.000126469
4 *725:A2 0.000183592
5 *724:A 0.000117422
6 *687:B 6.26419e-05
7 *731:A1 0.00022589
8 *698:A1 0
9 *727:A2 5.99396e-05
10 *814:Q 0.000155355
11 *142:170 0.000986932
12 *142:162 0.00212119
13 *142:136 0.000597701
14 *142:130 0.00241405
15 *142:111 0.000653036
16 *142:75 0.00142517
17 *142:58 0.00223688
18 *142:45 0.000887617
19 *142:41 0.00126515
20 *142:20 0.00133948
21 *142:14 0.00146925
22 *142:10 0.00186727
23 *142:8 0.000155355
24 *687:B *152:16 9.94003e-05
25 *687:B *169:37 6.09677e-05
26 *699:B *144:66 4.9346e-05
27 *724:A *143:90 6.10551e-06
28 *724:A *166:88 4.81208e-05
29 *725:A2 *725:D1 5.3304e-05
30 *725:A2 *143:72 3.85021e-05
31 *727:A2 *145:14 0.000188927
32 *729:B *166:47 0.000135037
33 *142:20 *145:14 0.000124622
34 *142:41 *734:B 8.16894e-05
35 *142:41 *143:55 0.000455758
36 *142:41 *143:72 0.000335128
37 *142:41 *145:34 8.563e-05
38 *142:41 *164:47 1.38076e-05
39 *142:41 *164:79 3.98882e-06
40 *142:41 *166:97 1.00084e-05
41 *142:41 *167:30 0.000402785
42 *142:58 *143:26 8.53029e-05
43 *142:58 *143:34 9.58714e-05
44 *142:58 *168:84 0
45 *142:58 *175:8 0.00010404
46 *142:75 *166:14 0.000160219
47 *142:75 *166:88 0.000143199
48 *142:111 *725:D1 0.000133649
49 *142:111 *143:72 4.07715e-05
50 *142:111 *172:12 2.80281e-05
51 *142:130 *163:18 7.69256e-06
52 *142:130 *173:31 0.00021677
53 *142:136 *163:18 0.000219383
54 *142:162 *163:18 0.000142173
55 *142:162 *166:55 0.000681829
56 *142:162 *173:31 0.000542761
57 *142:170 *706:B 0.00023356
58 *142:170 *161:8 6.70361e-05
59 *142:170 *161:21 3.70187e-05
60 *727:B1 *727:A2 0.000100061
61 *727:B1 *142:20 0.000135037
62 *784:A *727:A2 4.93812e-05
63 *814:RESET_B *142:8 0.000308414
64 *816:RESET_B *142:170 0.000537022
65 *817:RESET_B *142:20 0.000110922
66 *817:RESET_B *142:111 0.000204975
67 *818:RESET_B *699:B 8.62876e-05
68 *818:RESET_B *142:136 4.08126e-05
69 *820:RESET_B *142:130 0
70 *5:13 *142:170 2.62569e-05
71 *5:19 *142:170 0.00012758
72 *16:10 *142:111 0
73 *28:12 *142:58 0.000737746
74 *29:20 *142:58 0
75 *31:14 *142:41 0
76 *31:14 *142:111 1.03972e-05
77 *34:14 *142:136 0.000137179
78 *42:6 *142:14 0.00101506
79 *42:6 *142:130 4.21048e-05
80 *71:10 *142:170 4.67488e-05
81 *76:8 *142:45 9.78729e-06
82 *76:8 *142:58 6.24251e-05
83 *79:10 *142:58 0.000140266
84 *80:24 *731:A1 0.00014384
85 *81:26 *725:A2 0.000182087
86 *86:41 *142:170 9.67842e-05
87 *88:16 *142:41 0.000229207
88 *89:20 *699:B 5.24329e-05
89 *89:20 *142:136 0.000239243
90 *91:54 *142:170 0.000137058
91 *97:14 *724:A 9.86551e-06
92 *97:36 *725:A2 4.34876e-05
93 *103:28 *142:111 1.68817e-05
94 *106:14 *725:A2 4.05745e-05
95 *106:50 *142:58 1.62615e-05
96 *106:54 *731:A1 3.918e-05
97 *106:54 *142:58 7.53597e-05
98 *106:58 *731:A1 1.24362e-05
99 *110:151 *724:A 0.00024894
100 *110:151 *142:75 0.00156767
101 *116:53 *142:130 0.000110184
102 *127:20 *142:8 0.000308414
103 *129:102 *142:130 0.000346217
104 *130:65 *142:41 0.000136787
105 *130:97 *142:170 0.00130392
106 *131:20 *142:58 0.000720354
107 *132:20 *142:41 1.56758e-05
108 *132:93 *142:170 1.697e-05
109 *133:53 *142:170 0.00022822
110 *136:8 *142:162 2.93335e-05
111 *141:47 *687:B 8.78765e-06
112 *141:64 *142:41 2.27197e-05
113 *141:64 *142:45 4.96207e-05
114 *141:79 *142:170 0.00134361
*RES
1 *814:Q *142:8 42.3707 
2 *142:8 *142:10 15 
3 *142:10 *142:14 26.5793 
4 *142:14 *142:20 18.1279 
5 *142:20 *727:A2 25.5479 
6 *142:20 *142:41 39.5671 
7 *142:41 *142:45 16.5743 
8 *142:45 *698:A1 23 
9 *142:45 *142:58 35.8489 
10 *142:58 *731:A1 42.2775 
11 *142:58 *142:75 11.8341 
12 *142:75 *687:B 47.5691 
13 *142:75 *724:A 46.8064 
14 *142:14 *142:111 38.2236 
15 *142:111 *725:A2 41.9771 
16 *142:10 *142:130 42.6564 
17 *142:130 *142:136 20.8414 
18 *142:136 *729:B 39.5743 
19 *142:136 *699:B 41.3971 
20 *142:130 *142:162 36.1079 
21 *142:162 *142:170 46.2579 
22 *142:170 *707:A 23 
*END

*D_NET *143 0.0247528
*CONN
*I *687:A I *D sky130_fd_sc_hd__and3_1
*I *722:B I *D sky130_fd_sc_hd__nor2_2
*I *698:B1 I *D sky130_fd_sc_hd__a21oi_1
*I *725:A1 I *D sky130_fd_sc_hd__a2111o_1
*I *699:C_N I *D sky130_fd_sc_hd__or3b_2
*I *703:A I *D sky130_fd_sc_hd__inv_2
*I *815:Q O *D sky130_fd_sc_hd__dfrtp_4
*CAP
1 *687:A 0
2 *722:B 0
3 *698:B1 0
4 *725:A1 0
5 *699:C_N 0
6 *703:A 3.21736e-05
7 *815:Q 0
8 *143:98 0.000781621
9 *143:94 0.00109717
10 *143:90 0.000914833
11 *143:72 0.000706237
12 *143:61 0.000887914
13 *143:55 0.00175145
14 *143:51 0.000518464
15 *143:34 0.000673651
16 *143:26 0.000512502
17 *143:18 0.0012332
18 *143:4 0.0016003
19 *703:A *154:48 2.64616e-05
20 *143:34 *164:79 0.000587572
21 *143:51 *154:48 6.37432e-05
22 *143:61 *144:87 0.00145923
23 *143:72 *172:12 0.000291595
24 *143:90 *150:48 0.000106476
25 *143:90 *152:16 0.000782917
26 *143:94 *152:16 0.000160982
27 *143:98 *857:A 0
28 *143:98 *144:30 8.18862e-05
29 *143:98 *176:12 0.00284197
30 AN[1] *143:98 5.47927e-05
31 *705:B1 *143:18 1.45372e-05
32 *724:A *143:90 6.10551e-06
33 *725:A2 *143:72 3.85021e-05
34 *774:B *143:94 0
35 *815:RESET_B *143:18 0.000118518
36 *817:RESET_B *143:55 0.000392399
37 *817:RESET_B *143:72 0.000580598
38 *26:8 *143:61 0.000136738
39 *27:8 *143:18 5.03573e-05
40 *27:8 *143:90 9.03364e-06
41 *28:12 *143:34 1.32832e-05
42 *31:14 *143:34 0.000162254
43 *72:6 *143:18 0.000647461
44 *76:8 *143:26 9.77405e-05
45 *76:8 *143:34 9.41704e-05
46 *84:6 *703:A 2.64616e-05
47 *84:6 *143:51 6.70361e-05
48 *88:16 *143:26 0.000104141
49 *94:24 *143:26 0.000109522
50 *95:53 *143:18 2.60152e-05
51 *97:36 *143:72 0.00030734
52 *98:16 *143:18 6.48142e-05
53 *101:14 *143:90 2.93747e-05
54 *106:44 *143:34 2.0974e-05
55 *106:44 *143:51 0.000218838
56 *106:50 *143:34 4.67998e-05
57 *107:18 *143:34 0.000446787
58 *111:12 *143:61 0.000218471
59 *115:12 *143:94 0
60 *115:18 *143:94 0
61 *115:18 *143:98 0.000935997
62 *117:18 *143:18 0.000326886
63 *117:18 *143:90 0.000180841
64 *132:52 *143:61 0.000137368
65 *135:62 *143:90 0.000943481
66 *142:41 *143:55 0.000455758
67 *142:41 *143:72 0.000335128
68 *142:58 *143:26 8.53029e-05
69 *142:58 *143:34 9.58714e-05
70 *142:111 *143:72 4.07715e-05
*RES
1 *815:Q *143:4 23 
2 *143:4 *143:18 48.4564 
3 *143:18 *143:26 34.4121 
4 *143:26 *143:34 40.0464 
5 *143:34 *703:A 23.6214 
6 *143:34 *143:51 37.0636 
7 *143:51 *143:55 21.1314 
8 *143:55 *143:61 32.7936 
9 *143:61 *699:C_N 23 
10 *143:55 *143:72 29.9143 
11 *143:72 *725:A1 23 
12 *143:26 *698:B1 23 
13 *143:4 *143:90 31.7786 
14 *143:90 *143:94 20.075 
15 *143:94 *143:98 31.61 
16 *143:98 *722:B 23 
17 *143:90 *687:A 38 
*END

*D_NET *144 0.0306988
*CONN
*I *699:A I *D sky130_fd_sc_hd__or3b_2
*I *725:D1 I *D sky130_fd_sc_hd__a2111o_1
*I *727:A1 I *D sky130_fd_sc_hd__o21a_1
*I *729:A I *D sky130_fd_sc_hd__or3_1
*I *697:A I *D sky130_fd_sc_hd__xor2_1
*I *722:A I *D sky130_fd_sc_hd__nor2_2
*I *816:Q O *D sky130_fd_sc_hd__dfrtp_4
*CAP
1 *699:A 0
2 *725:D1 0.000308022
3 *727:A1 0
4 *729:A 0
5 *697:A 0
6 *722:A 0
7 *816:Q 0.000390627
8 *144:87 0.00142336
9 *144:72 7.09986e-05
10 *144:66 0.00250882
11 *144:45 0.000961251
12 *144:30 0.00127622
13 *144:18 0.00273966
14 *144:16 0.00275679
15 *144:10 0.00132274
16 *144:18 *145:55 1.33874e-05
17 *144:18 *162:58 1.15883e-05
18 *144:30 *857:A 5.47983e-06
19 *144:30 *169:10 0.00020182
20 *144:30 *176:12 3.22843e-05
21 *144:72 *145:18 0.000219882
22 *144:87 *751:B1 0.000175903
23 *144:87 *167:30 0.000301116
24 *699:B *144:66 4.9346e-05
25 *725:A2 *725:D1 5.3304e-05
26 *751:A2 *144:87 0.000344032
27 *780:A1_N *144:87 0.000136369
28 *780:A2_N *144:87 7.91662e-05
29 *831:RESET_B *144:45 0.00090749
30 *844:A *144:45 0.000151675
31 *5:19 *144:66 5.56356e-05
32 *31:14 *725:D1 0.000401184
33 *31:14 *144:87 0.00040944
34 *43:20 *144:66 8.80385e-05
35 *55:22 *144:66 0.000137717
36 *64:12 *144:18 0
37 *64:12 *144:30 0
38 *71:10 *144:16 0.000436243
39 *73:6 *144:45 0.000562925
40 *73:12 *144:16 0.00117737
41 *73:12 *144:18 0.00106713
42 *73:12 *144:30 6.25829e-05
43 *73:18 *144:16 0.000299471
44 *77:69 *144:16 0.00182942
45 *77:69 *144:18 0.000195931
46 *82:113 *144:66 0.0017403
47 *82:113 *144:87 0.000263538
48 *92:10 *144:18 0.000139537
49 *95:8 *144:30 0.00118618
50 *95:25 *144:30 3.90542e-05
51 *97:14 *144:72 0.000222123
52 *97:36 *725:D1 5.3304e-05
53 *106:26 *144:87 6.17437e-06
54 *124:8 *144:16 0.000364537
55 *126:26 *144:66 0.000181805
56 *127:20 *144:87 4.05745e-05
57 *129:10 *144:45 0.00081593
58 *130:12 *144:66 7.69066e-05
59 *130:78 *144:66 0.000149509
60 *134:21 *144:16 0.000106814
61 *136:14 *144:45 9.58908e-05
62 *141:24 *144:87 9.41704e-05
63 *141:111 *144:30 0.000283276
64 *142:111 *725:D1 0.000133649
65 *143:61 *144:87 0.00145923
66 *143:98 *144:30 8.18862e-05
*RES
1 *816:Q *144:10 42.93 
2 *144:10 *144:16 33.6607 
3 *144:16 *144:18 14.5829 
4 *144:18 *144:30 45.1186 
5 *144:30 *722:A 23 
6 *144:18 *144:45 38.8732 
7 *144:45 *697:A 23 
8 *144:16 *144:66 44.5386 
9 *144:66 *144:72 32.9621 
10 *144:72 *729:A 23 
11 *144:66 *144:87 43.13 
12 *144:87 *727:A1 38 
13 *144:87 *725:D1 45.1671 
14 *144:66 *699:A 23 
*END

*D_NET *145 0.0315474
*CONN
*I *732:A I *D sky130_fd_sc_hd__inv_2
*I *693:B I *D sky130_fd_sc_hd__and4_2
*I *733:B I *D sky130_fd_sc_hd__nand2_1
*I *738:A2 I *D sky130_fd_sc_hd__a31o_1
*I *734:B I *D sky130_fd_sc_hd__or2_1
*I *817:Q O *D sky130_fd_sc_hd__dfrtp_2
*CAP
1 *732:A 3.4627e-05
2 *693:B 0
3 *733:B 0.000185332
4 *738:A2 0
5 *734:B 0.000122623
6 *817:Q 6.27375e-05
7 *145:105 0.00014639
8 *145:99 0.000692254
9 *145:91 0.00103812
10 *145:72 0.00113771
11 *145:55 0.000123926
12 *145:49 0.00117413
13 *145:34 0.000333397
14 *145:24 0.00116811
15 *145:18 0.00241427
16 *145:16 0.0013591
17 *145:14 0.0019987
18 *145:8 0.00251907
19 *732:A *715:A 0.000140935
20 *733:B *733:A 5.56356e-05
21 *145:14 *164:85 0.000216721
22 *145:18 *148:58 3.04086e-05
23 *145:24 *154:48 0.000242541
24 *145:24 *174:12 0.000846882
25 *145:34 *167:30 0.000187765
26 *145:49 *149:51 0.000416607
27 *145:72 *148:58 7.31263e-06
28 *145:72 *162:58 0.000142313
29 *145:72 *163:22 0.000450354
30 *145:91 *715:A 0.000229793
31 *145:91 *164:85 0.000482051
32 *145:91 *164:89 0.000460185
33 *145:99 *172:12 0.000334993
34 *145:99 *173:12 0.000795935
35 *145:105 *173:12 0
36 *727:A2 *145:14 0.000188927
37 *727:B1 *145:14 0.000328846
38 *769:A2 *145:49 0.00060549
39 *784:A *145:14 9.02546e-05
40 *818:RESET_B *145:72 2.81216e-05
41 *830:RESET_B *732:A 0.000129823
42 *830:RESET_B *145:91 0.000397001
43 *6:25 *145:72 1.05658e-05
44 *20:8 *145:49 0.000935978
45 *31:22 *145:99 0.000216411
46 *43:44 *145:49 5.11857e-05
47 *75:19 *145:91 0.00040784
48 *76:12 *145:91 5.7203e-05
49 *77:86 *145:105 9.02657e-05
50 *84:6 *145:24 0.00085824
51 *92:10 *145:55 0.000111106
52 *97:14 *145:18 0.000172789
53 *97:14 *145:24 0.000155519
54 *97:26 *145:18 0.000129757
55 *97:26 *145:72 0.000327545
56 *99:8 *733:B 0.000133401
57 *99:14 *145:72 2.55191e-05
58 *103:28 *145:72 0.000232703
59 *106:14 *145:91 1.89075e-05
60 *106:26 *145:14 0.000222104
61 *106:26 *145:91 0.000345564
62 *106:44 *734:B 6.09335e-06
63 *107:10 *145:34 0.000138859
64 *109:14 *733:B 1.32314e-05
65 *109:18 *145:72 7.45476e-05
66 *110:122 *145:18 0.000509719
67 *110:122 *145:24 0.000219371
68 *116:20 *145:72 0.000833984
69 *122:31 *145:49 0.000533573
70 *129:70 *145:14 7.50819e-05
71 *129:102 *145:14 0.000162289
72 *130:65 *734:B 4.67488e-05
73 *132:20 *734:B 0.000175283
74 *133:10 *145:72 0.000549855
75 *133:82 *145:72 0.000118017
76 *135:14 *145:72 0.000138727
77 *135:62 *145:18 1.66706e-05
78 *136:49 *733:B 0.000125909
79 *141:14 *145:49 0.00146223
80 *142:20 *145:14 0.000124622
81 *142:41 *734:B 8.16894e-05
82 *142:41 *145:34 8.563e-05
83 *144:18 *145:55 1.33874e-05
84 *144:72 *145:18 0.000219882
*RES
1 *817:Q *145:8 38.6214 
2 *145:8 *145:14 40.9757 
3 *145:14 *145:16 15 
4 *145:16 *145:18 10.005 
5 *145:18 *145:24 36.2114 
6 *145:24 *145:34 49.1843 
7 *145:34 *734:B 40.7757 
8 *145:18 *145:49 45.16 
9 *145:49 *145:55 32.2579 
10 *145:55 *738:A2 23 
11 *145:16 *145:72 36.3261 
12 *145:72 *733:B 42.4743 
13 *145:8 *145:91 31.9029 
14 *145:91 *145:99 44.1893 
15 *145:99 *145:105 32.61 
16 *145:105 *693:B 23 
17 *145:91 *732:A 24.5743 
*END

*D_NET *146 0.0251846
*CONN
*I *759:C I *D sky130_fd_sc_hd__and3_1
*I *691:D I *D sky130_fd_sc_hd__and4_1
*I *760:B1 I *D sky130_fd_sc_hd__a31o_1
*I *827:Q O *D sky130_fd_sc_hd__dfrtp_1
*CAP
1 *759:C 0
2 *691:D 0
3 *760:B1 0.00022789
4 *827:Q 0
5 *146:72 0.000683849
6 *146:57 0.000514621
7 *146:53 0.00162765
8 *146:45 0.00483976
9 *146:20 0.0015264
10 *146:14 0.00176975
11 *146:4 0.00488182
12 *760:B1 *760:A1 0.00067075
13 *760:B1 *760:A2 2.46906e-05
14 *146:14 *150:48 8.60079e-05
15 *146:14 *152:16 5.25118e-05
16 *146:45 *152:35 8.9585e-05
17 *146:53 *151:12 0.000142631
18 *146:57 *691:B 5.3304e-05
19 *146:57 *147:16 0.00122024
20 *146:57 *159:37 9.5877e-05
21 *146:57 *172:26 0.000475208
22 *146:72 *147:45 0.00075473
23 *146:72 *151:12 0.000425555
24 *146:72 *151:18 1.01065e-05
25 *146:72 *166:71 0.000545648
26 *146:72 *169:75 0.000204647
27 *730:A *146:20 4.34973e-05
28 *786:A *146:57 4.08664e-05
29 *833:CLK *146:20 2.30292e-05
30 *833:RESET_B *146:14 0.000212565
31 *17:10 *146:45 6.16484e-05
32 *64:22 *146:53 0
33 *69:10 *146:72 0.000431988
34 *75:66 *146:20 0.000142147
35 *75:83 *146:20 9.41704e-05
36 *80:18 *146:20 8.41378e-05
37 *82:20 *146:20 0.000490262
38 *82:46 *146:20 0.000109458
39 *95:37 *146:45 1.79829e-05
40 *95:53 *146:20 0
41 *96:8 *146:45 5.85822e-06
42 *96:12 *146:14 0.000259968
43 *96:12 *146:45 4.95879e-05
44 *104:12 *146:14 0.000236453
45 *104:12 *146:20 5.50672e-05
46 *105:14 *146:45 0.000302311
47 *110:179 *146:45 5.72853e-05
48 *116:74 *146:72 6.56834e-05
49 *117:8 *760:B1 0.00049533
50 *126:61 *146:45 0
51 *129:141 *146:57 9.58714e-05
52 *132:81 *146:53 0.000339969
53 *136:32 *146:53 0.000143695
54 *136:32 *146:72 0.000248782
55 *137:35 *146:20 8.4047e-05
56 *140:45 *146:72 2.81216e-05
57 *141:47 *146:14 4.15526e-05
*RES
1 *827:Q *146:4 23 
2 *146:4 *146:14 40.6471 
3 *146:14 *146:20 35.155 
4 *146:20 *760:B1 46.265 
5 *146:4 *146:45 46.0237 
6 *146:45 *146:53 18.7818 
7 *146:53 *146:57 28.9614 
8 *146:57 *691:D 23 
9 *146:53 *146:72 35.5693 
10 *146:72 *759:C 23 
*END

*D_NET *147 0.0167589
*CONN
*I *691:C I *D sky130_fd_sc_hd__and4_1
*I *767:A I *D sky130_fd_sc_hd__and4_1
*I *762:B1 I *D sky130_fd_sc_hd__a21oi_1
*I *828:Q O *D sky130_fd_sc_hd__dfrtp_1
*CAP
1 *691:C 0
2 *767:A 0
3 *762:B1 0.000131664
4 *828:Q 0.000376517
5 *147:45 0.00112964
6 *147:26 0.0015411
7 *147:16 0.00371403
8 *147:14 0.0017647
9 *147:10 0.000966262
10 *762:B1 *150:35 3.00012e-05
11 *147:14 *691:B 2.64616e-05
12 *147:14 *172:26 0.000622351
13 *147:16 *691:B 2.02872e-05
14 *147:16 *159:37 4.05745e-05
15 *147:26 *148:20 0.000270591
16 *147:26 *148:45 0.000370964
17 *147:26 *159:37 2.14462e-05
18 *147:45 *164:104 0
19 *147:45 *166:71 0.0001667
20 seg[2] *147:10 0.000127209
21 *19:12 *147:26 9.97087e-05
22 *24:16 *147:45 0
23 *26:18 *762:B1 0.000248034
24 *43:8 *147:45 0
25 *64:22 *147:10 0
26 *84:10 *762:B1 0.000162861
27 *91:22 *147:26 0.00124196
28 *91:30 *147:45 0.00018015
29 *108:14 *147:45 0
30 *110:30 *147:26 3.89397e-05
31 *128:115 *147:45 0
32 *132:56 *147:26 5.49242e-05
33 *132:68 *147:26 0.000403141
34 *132:81 *147:26 1.84799e-05
35 *134:80 *147:10 0.000731165
36 *136:32 *147:45 0.000284055
37 *140:51 *147:45 0
38 *146:57 *147:16 0.00122024
39 *146:72 *147:45 0.00075473
*RES
1 *828:Q *147:10 48.2743 
2 *147:10 *147:14 23.2443 
3 *147:14 *147:16 15.3907 
4 *147:16 *147:26 42.195 
5 *147:26 *762:B1 49.4904 
6 *147:16 *147:45 35.9836 
7 *147:45 *767:A 38 
8 *147:14 *691:C 23 
*END

*D_NET *148 0.0222491
*CONN
*I *767:B I *D sky130_fd_sc_hd__and4_1
*I *692:B I *D sky130_fd_sc_hd__and4_1
*I *768:B I *D sky130_fd_sc_hd__and4_1
*I *770:B I *D sky130_fd_sc_hd__and4_1
*I *766:A I *D sky130_fd_sc_hd__xnor2_1
*I *829:Q O *D sky130_fd_sc_hd__dfrtp_2
*CAP
1 *767:B 0.000253176
2 *692:B 0
3 *768:B 2.36654e-05
4 *770:B 0
5 *766:A 3.35782e-05
6 *829:Q 0.000282079
7 *148:58 0.00181378
8 *148:56 0.00197089
9 *148:45 0.000608984
10 *148:24 0.000686402
11 *148:22 0.000224615
12 *148:20 0.00102715
13 *148:16 0.00149912
14 *148:10 0.00100722
15 *768:B *149:34 5.5792e-05
16 *148:10 *167:58 0
17 *148:16 *167:58 0
18 *148:20 *153:12 0.000231626
19 *148:20 *168:38 0
20 *148:45 *155:14 1.98125e-05
21 *148:45 *167:16 0.000148652
22 *148:58 *152:16 0.000114092
23 *148:58 *152:35 0.000148508
24 *148:58 *154:44 0.000577038
25 *148:58 *163:22 8.3718e-05
26 *148:58 *173:25 5.4823e-05
27 *766:B *766:A 5.5792e-05
28 *766:B *148:24 0.000138859
29 *766:B *148:56 0.000219266
30 *768:C *768:B 2.64616e-05
31 *812:A *148:16 0.000353434
32 *819:RESET_B *148:20 2.33162e-05
33 *829:RESET_B *148:10 0.000140856
34 *6:25 *148:58 2.26406e-05
35 *19:12 *148:20 0.000253773
36 *32:6 *767:B 0.000339129
37 *53:12 *148:16 3.96053e-05
38 *55:14 *148:20 0.000439461
39 *55:14 *148:56 0.000387627
40 *81:47 *767:B 0.000649762
41 *83:16 *148:45 2.80396e-05
42 *89:20 *148:58 0.00056885
43 *96:20 *148:58 0.000871055
44 *96:35 *148:58 0.00147118
45 *97:14 *148:58 0.00116513
46 *99:14 *148:58 0.000623695
47 *110:30 *148:45 0.00052649
48 *110:58 *148:10 1.28035e-05
49 *110:58 *148:16 0.000373259
50 *110:58 *148:20 0
51 *110:85 *148:10 0
52 *111:14 *148:45 0.000148652
53 *115:12 *148:58 0.000161475
54 *116:14 *148:16 4.6318e-06
55 *116:74 *767:B 0.000450137
56 *119:21 *148:56 0.000246524
57 *132:56 *148:20 2.90698e-05
58 *132:56 *148:45 4.30894e-05
59 *132:68 *148:45 0.000149713
60 *133:10 *148:58 0.00053343
61 *135:30 *766:A 1.358e-05
62 *139:48 *766:A 5.43544e-05
63 *139:48 *148:24 7.0209e-05
64 *139:48 *148:56 3.75842e-05
65 *141:94 *148:10 3.21743e-05
66 *145:18 *148:58 3.04086e-05
67 *145:72 *148:58 7.31263e-06
68 *147:26 *148:20 0.000270591
69 *147:26 *148:45 0.000370964
*RES
1 *829:Q *148:10 42.4329 
2 *148:10 *148:16 24.0314 
3 *148:16 *148:20 35.9214 
4 *148:20 *148:22 15 
5 *148:22 *148:24 1.57429 
6 *148:24 *766:A 24.0979 
7 *148:24 *148:45 35.3678 
8 *148:45 *770:B 38 
9 *148:22 *148:56 20.3857 
10 *148:56 *148:58 50.8536 
11 *148:58 *768:B 38.6214 
12 *148:16 *692:B 23 
13 *148:10 *767:B 49.5793 
*END

*D_NET *149 0.024976
*CONN
*I *692:A I *D sky130_fd_sc_hd__and4_1
*I *770:A I *D sky130_fd_sc_hd__and4_1
*I *769:A1 I *D sky130_fd_sc_hd__o21ba_1
*I *768:A I *D sky130_fd_sc_hd__and4_1
*I *830:Q O *D sky130_fd_sc_hd__dfrtp_1
*CAP
1 *692:A 0
2 *770:A 6.35926e-05
3 *769:A1 0
4 *768:A 0
5 *830:Q 0
6 *149:71 0.000997854
7 *149:51 0.00206245
8 *149:34 0.000963847
9 *149:24 0.0055492
10 *149:8 0.00284904
11 *149:6 0.0012604
12 *149:8 *168:74 1.13812e-05
13 *149:24 *156:30 0.000595284
14 *149:24 *162:41 0
15 *149:71 *152:77 0.000186455
16 *149:71 *159:37 0.000157371
17 *149:71 *161:52 0
18 *149:71 *168:74 0.000288569
19 *149:71 *172:18 3.3746e-05
20 *768:B *149:34 5.5792e-05
21 *768:C *149:34 2.83595e-05
22 *768:D *149:34 5.03902e-05
23 *769:A2 *149:51 5.19226e-05
24 *818:RESET_B *149:34 0.000335267
25 *818:RESET_B *149:51 0.000228837
26 *18:20 *149:24 2.64479e-05
27 *21:20 *149:24 0
28 *26:18 *149:8 0.000170057
29 *26:18 *149:24 9.18156e-06
30 *26:18 *149:71 1.69668e-05
31 *43:44 *149:51 0.00034601
32 *45:18 *149:34 3.59534e-05
33 *45:32 *149:24 0.000297194
34 *64:22 *149:71 2.31116e-05
35 *69:10 *149:71 0.000686223
36 *70:12 *770:A 0.000137361
37 *70:16 *149:24 0.00051857
38 *74:8 *149:71 0.00043065
39 *74:14 *149:8 0.000116197
40 *74:14 *149:71 0.000483364
41 *78:22 *149:34 4.0544e-05
42 *81:14 *149:71 7.73823e-06
43 *85:8 *149:8 0.00016914
44 *85:8 *149:24 0.000548504
45 *87:23 *770:A 9.87385e-06
46 *89:20 *149:34 0.00081157
47 *89:20 *149:51 0.000220584
48 *92:38 *149:24 0.000753494
49 *96:20 *149:34 0.000103702
50 *103:28 *149:24 0
51 *110:30 *770:A 4.67488e-05
52 *110:130 *149:34 0.000968596
53 *114:26 *149:24 1.09901e-05
54 *122:8 *149:34 0.000366929
55 *122:31 *149:51 0.00082956
56 *129:18 *149:34 3.53997e-05
57 *129:30 *149:34 0.00056896
58 *145:49 *149:51 0.000416607
*RES
1 *830:Q *149:6 38 
2 *149:6 *149:8 6.13143 
3 *149:8 *149:24 44.9539 
4 *149:24 *149:34 43.9689 
5 *149:34 *768:A 23 
6 *149:24 *149:51 49.1889 
7 *149:51 *769:A1 23 
8 *149:8 *770:A 39.5743 
9 *149:6 *149:71 39.4636 
10 *149:71 *692:A 23 
*END

*D_NET *150 0.0188399
*CONN
*I *771:B2 I *D sky130_fd_sc_hd__o2bb2a_1
*I *692:D I *D sky130_fd_sc_hd__and4_1
*I *770:C I *D sky130_fd_sc_hd__and4_1
*I *831:Q O *D sky130_fd_sc_hd__dfrtp_1
*CAP
1 *771:B2 0.000352694
2 *692:D 0
3 *770:C 0
4 *831:Q 0.000123178
5 *150:48 0.00124961
6 *150:35 0.00100643
7 *150:24 0.000515919
8 *150:10 0.00239278
9 *150:6 0.00189052
10 *150:10 *166:22 0.000175267
11 *150:24 *162:58 0.000264339
12 *150:24 *165:42 0.000106164
13 *150:35 *161:52 0.00129742
14 *150:48 *152:16 0.00032067
15 *695:A *150:24 1.75582e-05
16 *709:A2 *150:24 0
17 *739:A_N *771:B2 2.42041e-05
18 *762:B1 *150:35 3.00012e-05
19 *770:D *150:24 2.02872e-05
20 *812:A *150:35 0.000306062
21 *831:RESET_B *150:6 0.000135037
22 *831:RESET_B *150:48 0.000465538
23 *16:10 *150:24 1.34484e-05
24 *21:8 *771:B2 9.58714e-05
25 *26:18 *150:35 1.30142e-05
26 *27:16 *150:10 0.00193299
27 *27:16 *150:35 9.52125e-05
28 *69:10 *150:35 0.000306062
29 *70:12 *150:24 9.41704e-05
30 *75:66 *771:B2 3.77008e-05
31 *77:22 *150:24 2.26497e-05
32 *77:124 *150:24 7.86446e-05
33 *82:85 *150:24 0.000164191
34 *84:10 *150:10 0.0014001
35 *84:10 *150:35 0.000351219
36 *87:23 *150:24 1.21972e-05
37 *94:14 *771:B2 0.000221084
38 *101:14 *150:48 0.000155369
39 *103:28 *150:24 0.000572303
40 *123:16 *150:24 3.64574e-05
41 *123:30 *771:B2 3.37968e-05
42 *127:12 *150:35 0.00144845
43 *127:20 *150:35 1.77242e-05
44 *135:62 *150:48 1.52362e-05
45 *137:64 *150:10 0.000139568
46 *139:48 *150:35 0.000108892
47 *141:37 *150:48 0.000165369
48 *141:47 *150:48 0.00042201
49 *143:90 *150:48 0.000106476
50 *146:14 *150:48 8.60079e-05
*RES
1 *831:Q *150:6 24.5743 
2 *150:6 *150:10 41.7318 
3 *150:10 *150:24 36.2012 
4 *150:24 *770:C 23 
5 *150:10 *150:35 43.8032 
6 *150:35 *692:D 23 
7 *150:6 *150:48 48.2079 
8 *150:48 *771:B2 28.8621 
*END

*D_NET *151 0.0206092
*CONN
*I *772:B1 I *D sky130_fd_sc_hd__a21oi_1
*I *692:C I *D sky130_fd_sc_hd__and4_1
*I *832:Q O *D sky130_fd_sc_hd__dfrtp_1
*CAP
1 *772:B1 0.00103821
2 *692:C 0
3 *832:Q 0.000459448
4 *151:28 0.000555058
5 *151:18 0.0020469
6 *151:12 0.00235038
7 *151:10 0.0023562
8 *772:B1 *718:B1 0.000140313
9 *772:B1 *169:75 0.000180022
10 *151:12 *159:31 0.000350992
11 *151:18 *776:B 0.000121076
12 *151:18 *166:63 4.2033e-05
13 *151:18 *166:71 0.000110441
14 *151:28 *168:26 0.000228223
15 *151:28 *168:38 0.00075484
16 *702:C *772:B1 4.96717e-05
17 *713:C *772:B1 0.000116419
18 *812:A *151:28 0.000264773
19 *813:RESET_B *151:12 9.29484e-05
20 *38:30 *151:12 1.00765e-05
21 *41:10 *151:12 0.000483675
22 *43:20 *151:12 7.45545e-05
23 *50:28 *151:12 0.000115901
24 *55:26 *151:12 0.00171622
25 *57:10 *151:18 0
26 *69:10 *772:B1 9.67842e-05
27 *69:10 *151:18 0.000143001
28 *69:10 *151:28 0.00151725
29 *77:49 *772:B1 5.12254e-05
30 *89:36 *151:12 0.00054458
31 *90:25 *151:12 0.00142869
32 *90:33 *151:12 2.69046e-05
33 *91:73 *772:B1 2.19315e-05
34 *110:58 *151:28 2.71291e-05
35 *122:27 *151:10 0.000286249
36 *122:27 *151:12 0.00157012
37 *126:61 *151:12 0.000129968
38 *129:141 *151:18 2.12347e-06
39 *130:158 *772:B1 0
40 *133:26 *151:18 0.000181411
41 *133:38 *772:B1 5.3304e-05
42 *136:14 *151:12 1.22093e-05
43 *136:32 *151:12 0.000147499
44 *140:45 *151:18 0.000132142
45 *146:53 *151:12 0.000142631
46 *146:72 *151:12 0.000425555
47 *146:72 *151:18 1.01065e-05
*RES
1 *832:Q *151:10 44.4836 
2 *151:10 *151:12 55.2554 
3 *151:12 *151:18 24.5182 
4 *151:18 *151:28 47.8143 
5 *151:28 *692:C 23 
6 *151:18 *772:B1 41.4771 
*END

*D_NET *152 0.0261762
*CONN
*I *776:B I *D sky130_fd_sc_hd__and3_1
*I *779:B I *D sky130_fd_sc_hd__and4_1
*I *775:A1 I *D sky130_fd_sc_hd__a21oi_1
*I *688:B I *D sky130_fd_sc_hd__and4_2
*I *774:A I *D sky130_fd_sc_hd__xor2_1
*I *833:Q O *D sky130_fd_sc_hd__dfrtp_2
*CAP
1 *776:B 0.000115452
2 *779:B 0
3 *775:A1 2.43873e-05
4 *688:B 0.000258428
5 *774:A 3.99295e-05
6 *833:Q 0
7 *152:77 0.00242259
8 *152:67 0.00271389
9 *152:63 0.00126498
10 *152:50 0.00198286
11 *152:35 0.00250322
12 *152:16 0.00088801
13 *152:6 0.00222352
14 *688:B *688:C 1.24376e-05
15 *688:B *154:27 0.000138276
16 *776:B *166:63 2.05503e-05
17 *152:16 *169:37 4.53474e-05
18 *152:35 *154:27 0.000177796
19 *152:50 *153:50 2.93431e-05
20 *152:50 *153:64 0.000634515
21 *152:50 *154:27 4.57037e-05
22 *152:50 *159:21 0
23 *152:50 *163:39 0.000477341
24 *152:63 *153:46 0.000551614
25 *152:63 *153:50 2.46906e-05
26 *152:63 *159:21 1.02483e-05
27 *152:67 *159:31 2.62244e-05
28 *152:67 *166:63 2.17681e-05
29 *152:77 *779:A 0.000742813
30 *152:77 *161:52 0.000264611
31 *152:77 *166:63 8.28891e-05
32 *687:B *152:16 9.94003e-05
33 *713:A *152:63 1.28035e-05
34 *756:B *152:16 3.34818e-06
35 *774:B *152:16 0
36 *775:A2 *152:63 5.56279e-05
37 *779:D *152:77 4.62545e-05
38 *823:RESET_B *774:A 0.000234534
39 *833:RESET_B *152:16 0.000130599
40 *5:13 *152:67 0.000283276
41 *5:13 *152:77 0.00208965
42 *37:10 *774:A 0.000132671
43 *38:18 *152:50 0
44 *55:22 *152:50 0.000163361
45 *55:22 *152:63 0
46 *57:10 *152:63 4.66422e-05
47 *64:22 *152:77 0
48 *81:14 *152:77 0
49 *86:14 *776:B 5.50106e-05
50 *90:12 *152:63 0.000781738
51 *90:33 *688:B 0.000139346
52 *90:33 *152:50 3.24251e-06
53 *93:24 *152:35 0
54 *95:37 *152:35 0.00022324
55 *97:14 *152:16 0.000114092
56 *97:14 *152:35 0.00013959
57 *125:10 *152:63 4.79008e-05
58 *128:34 *152:35 0.00016597
59 *128:34 *152:50 5.79466e-05
60 *129:129 *152:63 0.000381361
61 *129:141 *776:B 4.58941e-05
62 *132:81 *152:63 0.000809381
63 *138:8 *152:50 0.000133689
64 *138:10 *152:35 4.79458e-06
65 *138:63 *152:50 5.45652e-05
66 *141:47 *152:16 0
67 *143:90 *152:16 0.000782917
68 *143:94 *152:16 0.000160982
69 *146:14 *152:16 5.25118e-05
70 *146:45 *152:35 8.9585e-05
71 *148:58 *152:16 0.000114092
72 *148:58 *152:35 0.000148508
73 *149:71 *152:77 0.000186455
74 *150:48 *152:16 0.00032067
75 *151:18 *776:B 0.000121076
*RES
1 *833:Q *152:6 38 
2 *152:6 *152:16 48.2079 
3 *152:16 *774:A 40.5271 
4 *152:6 *152:35 22.976 
5 *152:35 *688:B 41.48 
6 *152:35 *152:50 36.1907 
7 *152:50 *775:A1 23.4971 
8 *152:50 *152:63 44.2382 
9 *152:63 *152:67 8.5712 
10 *152:67 *152:77 44.3571 
11 *152:77 *779:B 23 
12 *152:67 *776:B 48.3511 
*END

*D_NET *153 0.0190636
*CONN
*I *775:B1 I *D sky130_fd_sc_hd__a21oi_1
*I *688:A I *D sky130_fd_sc_hd__and4_2
*I *776:A I *D sky130_fd_sc_hd__and3_1
*I *779:A I *D sky130_fd_sc_hd__and4_1
*I *834:Q O *D sky130_fd_sc_hd__dfrtp_1
*CAP
1 *775:B1 0
2 *688:A 9.55656e-05
3 *776:A 6.63824e-05
4 *779:A 0.000374004
5 *834:Q 0
6 *153:64 0.000854449
7 *153:50 0.00083191
8 *153:46 0.000966425
9 *153:33 0.00112124
10 *153:27 0.00138527
11 *153:12 0.00068363
12 *153:4 0.00153344
13 *688:A *154:27 0.000116164
14 *779:A *161:46 0.000349867
15 *153:12 *156:71 0.000399505
16 *153:12 *164:104 0.000397804
17 *153:27 *156:71 0.000108519
18 *153:27 *163:22 5.884e-05
19 *153:27 *163:26 2.64616e-05
20 *153:27 *164:104 1.28609e-05
21 *153:46 *159:21 0.00173463
22 *153:50 *163:39 8.48502e-06
23 *153:64 *163:39 1.59094e-05
24 *749:B *779:A 2.87992e-05
25 *775:A2 *153:50 0.0001423
26 *779:D *779:A 0.000273267
27 *819:RESET_B *153:12 0
28 *834:D *153:27 1.21972e-05
29 *834:RESET_B *153:27 9.32992e-05
30 *837:RESET_B *153:50 0.000270953
31 *837:RESET_B *153:64 5.3304e-05
32 *840:RESET_B *153:46 1.45549e-05
33 *19:12 *153:12 0.000152282
34 *33:26 *779:A 7.51776e-05
35 *43:20 *153:64 4.15283e-06
36 *50:10 *153:64 0.000176312
37 *55:22 *153:64 0.000216149
38 *57:10 *153:33 0.000393068
39 *77:37 *776:A 0.000137368
40 *77:37 *153:46 0.000164704
41 *90:12 *153:33 0.000393068
42 *90:25 *153:64 7.31043e-06
43 *90:33 *153:64 0.00122053
44 *110:58 *153:27 0.00010614
45 *116:14 *153:27 1.66113e-05
46 *127:6 *779:A 0.000353419
47 *128:115 *153:27 0.00064619
48 *132:81 *153:46 0.000602107
49 *140:30 *776:A 6.70361e-05
50 *140:30 *153:46 8.73233e-05
51 *148:20 *153:12 0.000231626
52 *152:50 *153:50 2.93431e-05
53 *152:50 *153:64 0.000634515
54 *152:63 *153:46 0.000551614
55 *152:63 *153:50 2.46906e-05
56 *152:77 *779:A 0.000742813
*RES
1 *834:Q *153:4 23 
2 *153:4 *153:12 39.1557 
3 *153:12 *779:A 36.485 
4 *153:4 *153:27 46.4679 
5 *153:27 *153:33 35.4271 
6 *153:33 *776:A 24.5743 
7 *153:33 *153:46 41.4936 
8 *153:46 *153:50 18.0036 
9 *153:50 *153:64 37.3714 
10 *153:64 *688:A 39.5743 
11 *153:50 *775:B1 23 
*END

*D_NET *154 0.0218224
*CONN
*I *779:C I *D sky130_fd_sc_hd__and4_1
*I *688:C I *D sky130_fd_sc_hd__and4_2
*I *778:A I *D sky130_fd_sc_hd__xor2_1
*I *835:Q O *D sky130_fd_sc_hd__dfrtp_2
*CAP
1 *779:C 0.000360863
2 *688:C 3.3235e-05
3 *778:A 0.000437045
4 *835:Q 0.000836376
5 *154:50 0.00149213
6 *154:48 0.0020941
7 *154:44 0.00155752
8 *154:27 0.00103809
9 *154:8 0.0016836
10 *154:44 *155:26 0.000406859
11 *154:48 *174:12 0.000475201
12 *154:50 *164:89 0.000770152
13 *688:A *154:27 0.000116164
14 *688:B *688:C 1.24376e-05
15 *688:B *154:27 0.000138276
16 *703:A *154:48 2.64616e-05
17 *779:D *779:C 2.93335e-05
18 *827:CLK *154:8 4.94879e-05
19 *835:RESET_B *154:8 0.000133207
20 *33:26 *779:C 9.71667e-05
21 *50:28 *778:A 3.04062e-05
22 *50:28 *154:27 0.000130407
23 *58:12 *154:50 0.00218902
24 *60:24 *778:A 0
25 *76:12 *154:50 0.00178706
26 *78:10 *154:50 0.000724202
27 *78:14 *154:48 0.00223779
28 *84:6 *154:48 6.62001e-05
29 *90:33 *154:27 0.00010851
30 *96:8 *154:8 6.44472e-05
31 *97:14 *154:44 0.000582421
32 *122:27 *778:A 4.36401e-06
33 *127:6 *779:C 3.18142e-05
34 *132:6 *154:44 0.000736817
35 *138:10 *154:27 4.44237e-05
36 *138:12 *778:A 9.22398e-05
37 *138:12 *154:27 2.99716e-05
38 *138:18 *778:A 6.78224e-05
39 *143:51 *154:48 6.37432e-05
40 *145:24 *154:48 0.000242541
41 *148:58 *154:44 0.000577038
42 *152:35 *154:27 0.000177796
43 *152:50 *154:27 4.57037e-05
*RES
1 *835:Q *154:8 48.6264 
2 *154:8 *778:A 45.54 
3 *154:8 *154:27 25.1293 
4 *154:27 *688:C 23.6214 
5 *154:27 *154:44 48.8914 
6 *154:44 *154:48 40.3957 
7 *154:48 *154:50 47.6843 
8 *154:50 *779:C 43.3857 
*END

*D_NET *155 0.0122121
*CONN
*I *780:B2 I *D sky130_fd_sc_hd__o2bb2a_1
*I *688:D I *D sky130_fd_sc_hd__and4_2
*I *836:Q O *D sky130_fd_sc_hd__dfrtp_1
*CAP
1 *780:B2 0
2 *688:D 0
3 *836:Q 0.000282111
4 *155:26 0.00125822
5 *155:14 0.00237555
6 *155:8 0.00139944
7 *155:14 *158:16 0.000676704
8 *155:14 *161:60 0.000124902
9 *155:26 *157:39 3.14237e-05
10 *155:26 *158:16 0.000871768
11 *814:RESET_B *155:14 0.000329419
12 *836:CLK *155:8 1.17164e-05
13 *26:18 *155:8 6.17437e-06
14 *43:44 *155:26 0.000132158
15 *87:12 *155:26 0.000137368
16 *105:6 *155:26 0.00114741
17 *127:12 *155:14 6.54711e-06
18 *127:20 *155:14 0.000341521
19 *129:66 *155:14 0.000173994
20 *132:6 *155:26 0.000129653
21 *132:12 *155:26 0.000385534
22 *132:31 *155:26 0.000793607
23 *132:52 *155:14 0.000171884
24 *132:52 *155:26 1.01436e-05
25 *132:56 *155:14 8.67558e-05
26 *132:125 *155:26 7.98243e-05
27 *134:43 *155:14 9.74679e-05
28 *135:22 *155:14 0.000480852
29 *136:49 *155:8 5.3304e-05
30 *136:55 *155:14 0.000187986
31 *139:85 *155:8 2.03764e-06
32 *148:45 *155:14 1.98125e-05
33 *154:44 *155:26 0.000406859
*RES
1 *836:Q *155:8 41.0036 
2 *155:8 *155:14 26.0379 
3 *155:14 *155:26 48.93 
4 *155:26 *688:D 23 
5 *155:14 *780:B2 38 
*END

*D_NET *156 0.0239325
*CONN
*I *693:A I *D sky130_fd_sc_hd__and4_2
*I *733:A I *D sky130_fd_sc_hd__nand2_1
*I *738:A1 I *D sky130_fd_sc_hd__a31o_1
*I *734:A I *D sky130_fd_sc_hd__or2_1
*I *818:Q O *D sky130_fd_sc_hd__dfrtp_2
*CAP
1 *693:A 0
2 *733:A 1.55776e-05
3 *738:A1 0
4 *734:A 0
5 *818:Q 0
6 *156:71 0.00101326
7 *156:56 0.00188685
8 *156:45 0.00291079
9 *156:30 0.00224082
10 *156:18 0.00640911
11 *156:4 0.00211551
12 *156:18 *163:22 2.05503e-05
13 *156:30 *165:21 3.36312e-06
14 *156:30 *165:42 8.94893e-06
15 *156:30 *167:30 0.000229558
16 *156:45 *162:58 9.85586e-06
17 *156:71 *163:26 0.0013249
18 *156:71 *164:104 0.000666656
19 *733:B *733:A 5.56356e-05
20 *813:RESET_B *156:45 5.71933e-05
21 *818:RESET_B *156:18 5.56279e-05
22 *818:RESET_B *156:56 0.000245199
23 *824:RESET_B *156:56 0.000767946
24 *824:RESET_B *156:71 0.000175974
25 *24:16 *156:71 0
26 *38:18 *156:45 0
27 *45:32 *156:30 9.06553e-05
28 *50:24 *156:45 5.73093e-05
29 *62:8 *156:71 0
30 *82:58 *156:30 0
31 *83:16 *156:18 8.73121e-05
32 *92:24 *156:30 0
33 *92:24 *156:45 0.00013323
34 *96:35 *156:45 0.000131856
35 *109:18 *156:18 1.20381e-05
36 *110:43 *156:18 1.08929e-05
37 *116:53 *156:56 5.85822e-06
38 *118:22 *156:45 0
39 *123:30 *156:18 0.00119537
40 *123:30 *156:30 0.000401901
41 *123:47 *156:18 0.000119246
42 *126:16 *156:56 0
43 *126:16 *156:71 0
44 *128:123 *156:71 0.000205621
45 *133:18 *156:71 0.00010896
46 *136:49 *733:A 5.56356e-05
47 *149:24 *156:30 0.000595284
48 *153:12 *156:71 0.000399505
49 *153:27 *156:71 0.000108519
*RES
1 *818:Q *156:4 23 
2 *156:4 *156:18 35.3566 
3 *156:18 *156:30 38.8378 
4 *156:30 *734:A 23 
5 *156:18 *156:45 36.7437 
6 *156:45 *738:A1 23 
7 *156:4 *156:56 29.6657 
8 *156:56 *733:A 38.6214 
9 *156:56 *156:71 42.3221 
10 *156:71 *693:A 23 
*END

*D_NET *157 0.0130911
*CONN
*I *689:A I *D sky130_fd_sc_hd__and2_1
*I *711:A I *D sky130_fd_sc_hd__and3_1
*I *710:B1 I *D sky130_fd_sc_hd__a21oi_1
*I *837:Q O *D sky130_fd_sc_hd__dfrtp_1
*CAP
1 *689:A 0.000385205
2 *711:A 1.92001e-05
3 *710:B1 0
4 *837:Q 4.99221e-05
5 *157:39 0.000810717
6 *157:30 0.0011756
7 *157:14 0.00275447
8 *157:8 0.00122248
9 *689:A *158:20 0.000466289
10 *157:30 *174:8 8.72173e-05
11 *710:A1 *157:30 1.83408e-05
12 *711:C *711:A 5.3304e-05
13 *774:B *157:39 1.17256e-05
14 *831:CLK *157:30 5.1664e-05
15 *831:RESET_B *157:14 0.000126137
16 *831:RESET_B *157:30 0.000307079
17 *837:RESET_B *157:8 5.3304e-05
18 *18:12 *157:39 0.000190678
19 *23:10 *157:39 0.000822179
20 *80:10 *157:14 0.000119526
21 *82:20 *157:39 7.59955e-05
22 *82:98 *157:14 1.22803e-05
23 *85:8 *157:30 4.43717e-05
24 *87:12 *157:14 0.00107854
25 *87:23 *689:A 0.00035508
26 *87:23 *157:14 0.000210936
27 *88:16 *157:30 0.000144494
28 *89:28 *689:A 3.7122e-06
29 *99:14 *689:A 0.000146487
30 *101:14 *157:14 8.71139e-05
31 *110:16 *689:A 0.000363058
32 *110:16 *157:14 0.000133862
33 *113:24 *157:39 0.000282721
34 *129:66 *157:39 0.000157562
35 *131:10 *711:A 5.58003e-05
36 *132:12 *157:39 0.000182191
37 *132:125 *157:39 0.000131463
38 *137:8 *157:30 2.02872e-05
39 *137:10 *157:30 7.49319e-05
40 *139:35 *689:A 9.41704e-05
41 *141:37 *157:14 0.000679603
42 *155:26 *157:39 3.14237e-05
*RES
1 *837:Q *157:8 38.6214 
2 *157:8 *157:14 35.7557 
3 *157:14 *157:30 47.2757 
4 *157:30 *710:B1 23 
5 *157:14 *157:39 35.5693 
6 *157:39 *711:A 38.6214 
7 *157:8 *689:A 48.4607 
*END

*D_NET *158 0.0147433
*CONN
*I *714:A1 I *D sky130_fd_sc_hd__o21ba_1
*I *689:B I *D sky130_fd_sc_hd__and2_1
*I *838:Q O *D sky130_fd_sc_hd__dfrtp_1
*CAP
1 *714:A1 0
2 *689:B 2.52923e-05
3 *838:Q 0
4 *158:43 0.00038363
5 *158:37 0.000683991
6 *158:20 0.000673908
7 *158:16 0.00104569
8 *158:12 0.00191743
9 *158:6 0.00121999
10 *158:12 *165:10 6.80785e-05
11 *689:A *158:20 0.000466289
12 *745:B *158:12 0.000620864
13 *814:CLK *158:37 0.000137368
14 *820:RESET_B *158:37 0.000106001
15 *24:16 *158:37 1.67417e-05
16 *24:16 *158:43 0.00059692
17 *43:44 *158:16 0.000414868
18 *52:6 *158:37 0.000179473
19 *87:12 *158:16 9.35995e-05
20 *89:28 *158:20 1.61361e-05
21 *89:28 *158:37 0.000218509
22 *89:36 *158:37 0.000135037
23 *92:38 *158:16 0.000125494
24 *95:53 *158:12 0.000194008
25 *97:26 *158:20 0.000386419
26 *99:20 *158:12 0.0010202
27 *104:12 *158:12 8.27285e-05
28 *126:16 *158:37 5.95452e-05
29 *129:102 *158:37 5.3304e-05
30 *129:109 *158:37 0.000185371
31 *130:65 *158:12 0.000889485
32 *132:52 *158:16 0.000595176
33 *133:8 *158:20 9.58714e-05
34 *133:8 *158:37 9.5877e-05
35 *136:32 *158:43 0
36 *139:35 *158:20 6.08617e-05
37 *141:24 *158:16 0.000330679
38 *155:14 *158:16 0.000676704
39 *155:26 *158:16 0.000871768
*RES
1 *838:Q *158:6 38 
2 *158:6 *158:12 39.3807 
3 *158:12 *158:16 36.2736 
4 *158:16 *158:20 22.7679 
5 *158:20 *689:B 23.4971 
6 *158:20 *158:37 38.0164 
7 *158:37 *158:43 38.2443 
8 *158:43 *714:A1 23 
*END

*D_NET *159 0.0248966
*CONN
*I *690:A I *D sky130_fd_sc_hd__and4_2
*I *715:A I *D sky130_fd_sc_hd__and3_1
*I *716:B2 I *D sky130_fd_sc_hd__o2bb2a_1
*I *839:Q O *D sky130_fd_sc_hd__dfrtp_1
*CAP
1 *690:A 0.000924417
2 *715:A 0.000311419
3 *716:B2 0.000951176
4 *839:Q 0.000593111
5 *159:37 0.00109852
6 *159:31 0.00139207
7 *159:23 0.00152939
8 *159:21 0.00153653
9 *159:10 0.00264696
10 *159:8 0.000752361
11 *159:21 *163:39 0
12 *159:31 *166:63 5.11584e-05
13 *159:37 *172:26 0.00190091
14 *732:A *715:A 0.000140935
15 *830:RESET_B *715:A 0.00054301
16 *839:CLK *159:8 4.02868e-05
17 *839:D *159:8 6.17437e-06
18 *840:RESET_B *159:21 0.000681651
19 *5:13 *690:A 0
20 *5:13 *159:31 0
21 *20:12 *159:21 0.000792318
22 *29:6 *715:A 0.00043107
23 *38:18 *159:10 0.000166303
24 *38:18 *159:21 0.00024508
25 *38:30 *159:31 0.000122286
26 *43:20 *159:31 8.4047e-05
27 *53:6 *159:37 6.24251e-05
28 *56:16 *690:A 4.68153e-05
29 *64:22 *690:A 0.000562537
30 *64:22 *159:31 0.000242264
31 *68:8 *716:B2 0.000177352
32 *74:14 *159:37 0.000159611
33 *77:69 *690:A 4.45839e-05
34 *90:33 *716:B2 5.81931e-05
35 *91:14 *715:A 0.000268339
36 *91:22 *159:37 0.00154938
37 *91:54 *716:B2 8.08729e-06
38 *92:49 *159:10 0.00034057
39 *92:49 *159:21 0.000599079
40 *93:24 *159:21 0.000251004
41 *123:71 *690:A 0
42 *125:10 *159:21 0.000293785
43 *128:34 *716:B2 0.000101934
44 *128:34 *159:8 0.000252901
45 *128:43 *716:B2 1.21972e-05
46 *128:54 *716:B2 1.59094e-05
47 *133:82 *159:37 0.000135037
48 *133:90 *715:A 2.12505e-05
49 *141:12 *159:21 8.50442e-05
50 *145:91 *715:A 0.000229793
51 *146:57 *159:37 9.5877e-05
52 *147:16 *159:37 4.05745e-05
53 *147:26 *159:37 2.14462e-05
54 *149:71 *159:37 0.000157371
55 *151:12 *159:31 0.000350992
56 *152:50 *159:21 0
57 *152:63 *159:21 1.02483e-05
58 *152:67 *159:31 2.62244e-05
59 *153:46 *159:21 0.00173463
*RES
1 *839:Q *159:8 45.7679 
2 *159:8 *159:10 4.72286 
3 *159:10 *716:B2 49.5793 
4 *159:10 *159:21 43.2825 
5 *159:21 *159:23 8 
6 *159:23 *159:31 28.8995 
7 *159:31 *159:37 40.2714 
8 *159:37 *715:A 48.15 
9 *159:23 *690:A 48.9617 
*END

*D_NET *160 0.00491852
*CONN
*I *718:B1 I *D sky130_fd_sc_hd__a21o_1
*I *690:B I *D sky130_fd_sc_hd__and4_2
*I *840:Q O *D sky130_fd_sc_hd__dfrtp_1
*CAP
1 *718:B1 0.000334979
2 *690:B 0
3 *840:Q 4.99221e-05
4 *160:16 0.000641945
5 *160:8 0.00102685
6 *690:C *160:16 0.000164007
7 *706:A *160:16 5.3304e-05
8 *713:A *718:B1 0.000150518
9 *713:C *718:B1 0.000106571
10 *772:B1 *718:B1 0.000140313
11 *773:B *160:16 0.00022316
12 *825:CLK *718:B1 2.42618e-05
13 *840:RESET_B *718:B1 0.00011127
14 *840:RESET_B *160:16 0.000108681
15 *77:37 *160:16 3.50539e-05
16 *77:58 *160:16 2.25809e-05
17 *77:69 *160:16 1.40958e-05
18 *82:141 *160:16 4.67488e-05
19 *82:154 *160:16 2.64616e-05
20 *86:14 *160:16 0.0010446
21 *93:12 *718:B1 0.000120728
22 *132:81 *718:B1 1.22803e-05
23 *132:81 *160:16 5.45887e-05
24 *132:93 *160:8 5.3304e-05
25 *133:38 *718:B1 0.000108681
26 *134:6 *160:16 2.60159e-05
27 *140:30 *160:16 0.000140931
28 *140:71 *718:B1 7.66726e-05
*RES
1 *840:Q *160:8 38.6214 
2 *160:8 *160:16 30.8879 
3 *160:16 *690:B 23 
4 *160:8 *718:B1 46.555 
*END

*D_NET *161 0.0172541
*CONN
*I *696:A I *D sky130_fd_sc_hd__and4_1
*I *721:A I *D sky130_fd_sc_hd__xnor2_1
*I *704:A1 I *D sky130_fd_sc_hd__a31o_1
*I *702:D I *D sky130_fd_sc_hd__nand4b_2
*I *706:B I *D sky130_fd_sc_hd__and4_1
*I *841:Q O *D sky130_fd_sc_hd__dfrtp_2
*CAP
1 *696:A 0.00031373
2 *721:A 3.24351e-05
3 *704:A1 0
4 *702:D 0
5 *706:B 0.000275701
6 *841:Q 9.43374e-05
7 *161:67 0.00054992
8 *161:60 0.000217886
9 *161:52 0.00116474
10 *161:46 0.00193875
11 *161:40 0.00228606
12 *161:21 0.00173349
13 *161:8 0.000605609
14 *696:A *165:71 0.000402801
15 *696:A *170:16 0.000402801
16 *161:21 *168:12 0.000162169
17 *161:21 *168:52 0.000121192
18 *161:40 *749:A 5.53921e-05
19 *161:40 *168:12 0.000138708
20 *161:52 *168:74 8.73233e-05
21 *749:B *161:46 4.73422e-05
22 *779:A *161:46 0.000349867
23 *816:RESET_B *161:21 9.27814e-05
24 *825:RESET_B *161:40 0.0019562
25 *829:CLK *696:A 5.54905e-05
26 *829:CLK *161:67 4.40447e-05
27 *5:13 *706:B 0.000237958
28 *5:13 *161:21 6.68498e-05
29 *26:18 *161:52 0.000464869
30 *39:14 *161:40 3.44383e-05
31 *64:22 *161:52 4.35681e-06
32 *77:58 *706:B 0.000175903
33 *80:45 *161:67 2.53679e-05
34 *81:14 *161:67 0
35 *81:47 *721:A 2.95526e-05
36 *92:38 *161:67 1.20476e-05
37 *108:14 *161:40 2.07921e-05
38 *109:8 *161:40 0.000361183
39 *111:14 *696:A 0
40 *121:10 *161:21 0
41 *121:10 *161:40 0
42 *127:12 *161:52 6.32792e-05
43 *127:12 *161:60 8.30566e-06
44 *127:12 *161:67 4.40055e-05
45 *132:93 *161:8 0.000175903
46 *133:53 *161:8 8.06804e-06
47 *134:43 *161:60 0.000281659
48 *134:54 *696:A 0
49 *135:30 *161:60 2.193e-05
50 *139:48 *161:60 3.20631e-05
51 *141:92 *161:21 3.21926e-05
52 *142:170 *706:B 0.00023356
53 *142:170 *161:8 6.70361e-05
54 *142:170 *161:21 3.70187e-05
55 *149:71 *161:52 0
56 *150:35 *161:52 0.00129742
57 *152:77 *161:52 0.000264611
58 *155:14 *161:60 0.000124902
*RES
1 *841:Q *161:8 40.0507 
2 *161:8 *706:B 43.365 
3 *161:8 *161:21 6.48357 
4 *161:21 *702:D 38 
5 *161:21 *161:40 42.0114 
6 *161:40 *161:46 25.295 
7 *161:46 *161:52 36.9157 
8 *161:52 *161:60 34.4329 
9 *161:60 *704:A1 23 
10 *161:46 *161:67 4.01857 
11 *161:67 *721:A 38.6214 
12 *161:67 *696:A 47.5079 
*END

*D_NET *162 0.0299106
*CONN
*I *738:A3 I *D sky130_fd_sc_hd__a31o_1
*I *737:A I *D sky130_fd_sc_hd__xnor2_1
*I *693:C I *D sky130_fd_sc_hd__and4_2
*I *819:Q O *D sky130_fd_sc_hd__dfrtp_2
*CAP
1 *738:A3 0
2 *737:A 0
3 *693:C 0.000440622
4 *819:Q 0.000157122
5 *162:58 0.00339815
6 *162:41 0.00328368
7 *162:29 0.00804507
8 *162:12 0.00254098
9 *162:8 0.000894241
10 *693:C *165:48 4.62843e-05
11 *693:C *165:69 3.38059e-05
12 *819:RESET_B *693:C 0.000159848
13 *819:RESET_B *162:12 0.000256874
14 *828:RESET_B *162:58 0.000238048
15 *5:13 *693:C 0.000100813
16 *5:13 *162:12 9.62504e-05
17 *6:25 *162:41 0
18 *45:32 *162:41 0
19 *53:12 *162:8 0.000321726
20 *77:69 *162:58 0.00122175
21 *77:86 *693:C 2.79552e-05
22 *77:124 *162:41 0.000767506
23 *80:18 *162:41 4.91853e-05
24 *80:45 *162:29 0.00157896
25 *80:45 *162:41 0.00113636
26 *83:16 *162:58 0.00192951
27 *92:38 *162:29 0
28 *92:38 *162:41 0
29 *96:35 *162:41 0.000113946
30 *98:16 *162:41 0.00010083
31 *103:28 *162:58 0.000679117
32 *109:14 *162:8 0.000323967
33 *110:151 *162:41 2.83822e-05
34 *114:26 *162:41 0
35 *117:18 *162:41 2.36993e-05
36 *118:12 *162:58 0.000475588
37 *123:16 *162:58 0.000227077
38 *123:57 *162:58 0
39 *134:31 *162:12 0.00078516
40 *134:80 *162:58 0
41 *144:18 *162:58 1.15883e-05
42 *145:72 *162:58 0.000142313
43 *149:24 *162:41 0
44 *150:24 *162:58 0.000264339
45 *156:45 *162:58 9.85586e-06
*RES
1 *819:Q *162:8 42.5468 
2 *162:8 *162:12 10.3315 
3 *162:12 *693:C 47.983 
4 *162:12 *162:29 11.9909 
5 *162:29 *162:41 39.7839 
6 *162:41 *737:A 23 
7 *162:29 *162:58 40.1972 
8 *162:58 *738:A3 38 
*END

*D_NET *163 0.0154356
*CONN
*I *738:B1 I *D sky130_fd_sc_hd__a31o_1
*I *693:D I *D sky130_fd_sc_hd__and4_2
*I *820:Q O *D sky130_fd_sc_hd__dfrtp_1
*CAP
1 *738:B1 0.000863875
2 *693:D 0
3 *820:Q 0
4 *163:39 0.00137609
5 *163:26 0.000803213
6 *163:22 0.00190268
7 *163:18 0.0017545
8 *163:4 0.00116726
9 *163:18 *166:55 0.000158463
10 *163:18 *173:31 0.000111806
11 *163:26 *164:104 5.49377e-05
12 *717:B *738:B1 6.51573e-05
13 *777:A *738:B1 2.99019e-05
14 *820:RESET_B *163:18 0.000156769
15 *837:RESET_B *163:18 0.000124153
16 *837:RESET_B *163:39 4.03402e-05
17 *24:16 *163:18 2.23486e-05
18 *53:12 *163:22 0.000111097
19 *92:10 *738:B1 0.000140494
20 *99:14 *163:22 0.0011771
21 *102:8 *738:B1 0.00056204
22 *109:18 *163:22 6.48484e-05
23 *110:43 *163:22 0.000269374
24 *110:58 *163:22 0.000375206
25 *113:10 *163:22 1.98354e-05
26 *116:14 *163:22 0.000416218
27 *125:10 *163:39 9.41704e-05
28 *129:102 *163:18 0.000302823
29 *136:49 *163:22 8.04817e-05
30 *141:12 *738:B1 7.47317e-05
31 *141:12 *163:39 2.3963e-05
32 *141:71 *738:B1 0.000217916
33 *141:111 *738:B1 3.79658e-05
34 *142:130 *163:18 7.69256e-06
35 *142:136 *163:18 0.000219383
36 *142:162 *163:18 0.000142173
37 *145:72 *163:22 0.000450354
38 *148:58 *163:22 8.3718e-05
39 *152:50 *163:39 0.000477341
40 *153:27 *163:22 5.884e-05
41 *153:27 *163:26 2.64616e-05
42 *153:50 *163:39 8.48502e-06
43 *153:64 *163:39 1.59094e-05
44 *156:18 *163:22 2.05503e-05
45 *156:71 *163:26 0.0013249
46 *159:21 *163:39 0
*RES
1 *820:Q *163:4 23 
2 *163:4 *163:18 44.3757 
3 *163:18 *163:22 43.3164 
4 *163:22 *163:26 31.82 
5 *163:26 *693:D 23 
6 *163:4 *163:39 39.7357 
7 *163:39 *738:B1 39.8407 
*END

*D_NET *164 0.0299495
*CONN
*I *749:A I *D sky130_fd_sc_hd__and3_1
*I *744:B I *D sky130_fd_sc_hd__and3_2
*I *742:A I *D sky130_fd_sc_hd__nor2_1
*I *694:B I *D sky130_fd_sc_hd__and4_1
*I *741:A I *D sky130_fd_sc_hd__and2_1
*I *821:Q O *D sky130_fd_sc_hd__dfrtp_2
*CAP
1 *749:A 1.58631e-05
2 *744:B 0
3 *742:A 0.000509991
4 *694:B 0
5 *741:A 2.63285e-05
6 *821:Q 0.000416763
7 *164:104 0.00229982
8 *164:93 0.00261065
9 *164:89 0.000898382
10 *164:85 0.00114164
11 *164:79 0.00133825
12 *164:51 0.000544661
13 *164:47 0.000935215
14 *164:34 0.00170355
15 *164:16 0.00338928
16 *164:10 0.00226107
17 *742:A *694:C 1.24376e-05
18 *164:16 *165:6 1.24376e-05
19 *164:34 *165:6 0.000938113
20 *164:34 *165:10 3.36312e-06
21 *164:34 *166:97 0.000474825
22 *164:47 *165:10 0
23 *164:47 *166:97 0.000129504
24 *164:79 *165:10 0
25 *164:79 *167:30 5.94125e-05
26 *164:104 *744:A 3.55945e-05
27 *164:104 *168:26 3.83778e-05
28 *695:D *164:85 9.41704e-05
29 *705:B1 *741:A 5.40337e-05
30 *719:A *164:16 0.000513112
31 *742:B *742:A 9.41704e-05
32 *789:A *742:A 4.99598e-05
33 *822:RESET_B *164:16 0.000234907
34 *825:RESET_B *749:A 5.56356e-05
35 *834:D *164:104 2.93845e-05
36 *834:RESET_B *164:104 2.15102e-05
37 *838:RESET_B *164:34 4.56462e-05
38 *28:12 *164:79 0.000657338
39 *28:12 *164:85 0.000252325
40 *31:14 *164:79 2.55866e-05
41 *31:14 *164:85 0.00137526
42 *47:10 *742:A 0.000231137
43 *47:10 *164:79 0.000477942
44 *66:14 *164:16 4.64502e-05
45 *72:6 *741:A 0.000100069
46 *75:8 *164:104 6.0894e-06
47 *75:19 *164:89 0.000509012
48 *75:19 *164:93 7.79778e-05
49 *75:83 *164:34 0
50 *75:107 *164:89 0
51 *76:12 *164:89 3.70094e-05
52 *83:22 *164:85 9.58714e-05
53 *94:10 *164:16 0.000513126
54 *95:8 *164:10 0.000252701
55 *106:14 *164:85 0.000136486
56 *106:26 *164:85 0.000371084
57 *108:14 *164:104 1.01436e-05
58 *116:74 *164:104 4.15888e-05
59 *128:123 *164:104 0
60 *137:35 *164:34 8.11802e-06
61 *141:64 *164:47 9.83712e-06
62 *141:64 *164:79 4.15283e-06
63 *142:41 *164:47 1.38076e-05
64 *142:41 *164:79 3.98882e-06
65 *143:34 *164:79 0.000587572
66 *145:14 *164:85 0.000216721
67 *145:91 *164:85 0.000482051
68 *145:91 *164:89 0.000460185
69 *147:45 *164:104 0
70 *153:12 *164:104 0.000397804
71 *153:27 *164:104 1.28609e-05
72 *154:50 *164:89 0.000770152
73 *156:71 *164:104 0.000666656
74 *161:40 *749:A 5.53921e-05
75 *163:26 *164:104 5.49377e-05
*RES
1 *821:Q *164:10 45.8093 
2 *164:10 *164:16 46.61 
3 *164:16 *164:34 40.7064 
4 *164:34 *741:A 39.0979 
5 *164:34 *164:47 3.05536 
6 *164:47 *164:51 15.6732 
7 *164:51 *694:B 23 
8 *164:51 *742:A 30.3329 
9 *164:47 *164:79 46.1571 
10 *164:79 *164:85 37.5475 
11 *164:85 *164:89 35.9214 
12 *164:89 *164:93 19.4329 
13 *164:93 *744:B 23 
14 *164:93 *164:104 46.1957 
15 *164:104 *749:A 38.6214 
*END

*D_NET *165 0.0269436
*CONN
*I *748:A I *D sky130_fd_sc_hd__and3_1
*I *744:A I *D sky130_fd_sc_hd__and3_2
*I *745:A I *D sky130_fd_sc_hd__nor2_1
*I *694:A I *D sky130_fd_sc_hd__and4_1
*I *822:Q O *D sky130_fd_sc_hd__dfrtp_2
*CAP
1 *748:A 0
2 *744:A 5.66456e-05
3 *745:A 0
4 *694:A 6.10264e-05
5 *822:Q 0.000573636
6 *165:81 0.000321726
7 *165:71 0.00305329
8 *165:69 0.00343453
9 *165:48 0.000897235
10 *165:42 0.00315286
11 *165:21 0.00323958
12 *165:10 0.000673375
13 *165:6 0.000961648
14 *165:21 *167:30 0
15 *165:42 *167:30 0.000205298
16 *165:69 *170:16 0
17 *165:71 *170:16 0.000306724
18 *165:71 *170:18 0.00107351
19 *165:81 *748:C 0.000187834
20 *165:81 *167:60 4.95908e-05
21 *693:C *165:48 4.62843e-05
22 *693:C *165:69 3.38059e-05
23 *696:A *165:71 0.000402801
24 *696:D *165:69 0.000576736
25 *745:B *165:10 0.000304862
26 *745:B *165:21 0.000366537
27 *745:B *165:42 1.13812e-05
28 *752:B *165:71 0.000181125
29 *819:RESET_B *165:48 1.42045e-05
30 *822:CLK *165:6 4.9662e-05
31 *822:RESET_B *165:6 6.39489e-05
32 *838:RESET_B *165:6 0.000384556
33 *5:13 *165:48 1.80133e-05
34 *16:10 *165:42 0.000117526
35 *21:20 *165:21 3.04382e-05
36 *36:18 *165:6 2.93747e-05
37 *47:10 *694:A 3.42398e-05
38 *66:14 *165:6 0.000215433
39 *75:8 *744:A 0.00010095
40 *75:83 *165:10 0.000267298
41 *77:14 *165:42 8.95203e-05
42 *77:22 *165:42 0.000107024
43 *77:86 *165:69 0.000332679
44 *77:124 *165:42 0.000118922
45 *80:45 *165:42 0.000150391
46 *82:77 *165:42 0.000839596
47 *82:85 *165:42 7.07672e-05
48 *95:53 *165:10 0.00014512
49 *99:20 *165:42 0.00139535
50 *103:28 *165:42 3.33733e-05
51 *104:12 *165:10 8.85189e-05
52 *108:6 *165:81 0.000456792
53 *111:14 *165:42 3.57033e-05
54 *112:22 *165:71 0.00020614
55 *130:158 *165:81 0.000189848
56 *141:92 *165:81 1.0092e-05
57 *150:24 *165:42 0.000106164
58 *156:30 *165:21 3.36312e-06
59 *156:30 *165:42 8.94893e-06
60 *158:12 *165:10 6.80785e-05
61 *164:16 *165:6 1.24376e-05
62 *164:34 *165:6 0.000938113
63 *164:34 *165:10 3.36312e-06
64 *164:47 *165:10 0
65 *164:79 *165:10 0
66 *164:104 *744:A 3.55945e-05
*RES
1 *822:Q *165:6 37.9143 
2 *165:6 *165:10 24.3007 
3 *165:10 *694:A 39.0979 
4 *165:10 *165:21 5.075 
5 *165:21 *745:A 38 
6 *165:21 *165:42 45.7837 
7 *165:42 *165:48 16.2707 
8 *165:48 *744:A 39.5743 
9 *165:48 *165:69 30.5979 
10 *165:69 *165:71 42.5471 
11 *165:71 *165:81 39.57 
12 *165:81 *748:A 23 
*END

*D_NET *166 0.0339183
*CONN
*I *694:D I *D sky130_fd_sc_hd__and4_1
*I *747:A I *D sky130_fd_sc_hd__xor2_1
*I *748:C I *D sky130_fd_sc_hd__and3_1
*I *751:A1 I *D sky130_fd_sc_hd__a21o_1
*I *823:Q O *D sky130_fd_sc_hd__dfrtp_4
*CAP
1 *694:D 0
2 *747:A 0
3 *748:C 0.000805924
4 *751:A1 4.25104e-05
5 *823:Q 2.16905e-05
6 *166:97 0.000832539
7 *166:88 0.00210884
8 *166:71 0.00174783
9 *166:63 0.0019421
10 *166:55 0.00167367
11 *166:47 0.00164301
12 *166:22 0.00250015
13 *166:14 0.00435006
14 *166:8 0.00160734
15 *166:22 *174:8 0.000614032
16 *712:A *166:97 0.000576033
17 *724:A *166:88 4.81208e-05
18 *729:B *166:47 0.000135037
19 *731:A2 *166:8 0.000100061
20 *750:A *166:47 5.56356e-05
21 *751:A2 *751:A1 5.50049e-05
22 *758:B *166:88 0
23 *776:B *166:63 2.05503e-05
24 *820:CLK *166:47 8.50169e-05
25 *823:CLK *166:22 0.000848483
26 *829:RESET_B *166:71 0.000276734
27 *837:RESET_B *166:47 0.000207923
28 *18:12 *166:22 0
29 *26:18 *166:47 0.000138718
30 *33:10 *166:97 0
31 *34:14 *166:47 2.93747e-05
32 *37:10 *166:88 0.000232719
33 *38:30 *166:63 0.000647306
34 *43:20 *166:63 0.000373816
35 *50:10 *166:63 0.000216721
36 *55:22 *166:63 0.000858564
37 *57:10 *166:63 0.000186091
38 *57:10 *166:71 0
39 *64:22 *166:63 6.25481e-06
40 *70:16 *166:22 9.6958e-05
41 *70:16 *166:47 5.7203e-05
42 *80:18 *166:22 0
43 *80:24 *166:8 0.000100061
44 *81:47 *166:71 2.76005e-05
45 *84:10 *166:22 0.000495017
46 *84:10 *166:47 0.000262829
47 *85:8 *166:22 0
48 *88:16 *166:97 8.55413e-05
49 *95:37 *166:22 1.15883e-05
50 *95:53 *166:14 0
51 *95:53 *166:22 0.000295351
52 *95:53 *166:97 0
53 *97:26 *166:47 9.62024e-05
54 *98:12 *166:47 0.000593163
55 *106:54 *166:97 0
56 *106:58 *166:88 4.84155e-05
57 *107:18 *166:97 0
58 *108:14 *166:71 0
59 *110:98 *166:71 7.57281e-06
60 *110:122 *166:47 2.1819e-05
61 *110:143 *166:88 3.4466e-05
62 *110:151 *166:88 6.31392e-06
63 *110:151 *166:97 1.81615e-05
64 *116:53 *166:55 3.93595e-05
65 *117:18 *166:22 0.000387516
66 *129:141 *166:63 0.000500687
67 *130:28 *166:88 0.000592025
68 *130:158 *748:C 0.000719772
69 *133:26 *166:71 0.000183652
70 *137:64 *166:22 0.000297609
71 *137:66 *166:22 0.000202358
72 *137:70 *166:22 0.000180403
73 *140:45 *166:71 6.92184e-05
74 *141:94 *748:C 0.000347879
75 *141:94 *166:71 9.86777e-06
76 *142:41 *166:97 1.00084e-05
77 *142:75 *166:14 0.000160219
78 *142:75 *166:88 0.000143199
79 *142:162 *166:55 0.000681829
80 *146:72 *166:71 0.000545648
81 *147:45 *166:71 0.0001667
82 *150:10 *166:22 0.000175267
83 *151:18 *166:63 4.2033e-05
84 *151:18 *166:71 0.000110441
85 *152:67 *166:63 2.17681e-05
86 *152:77 *166:63 8.28891e-05
87 *159:31 *166:63 5.11584e-05
88 *163:18 *166:55 0.000158463
89 *164:34 *166:97 0.000474825
90 *164:47 *166:97 0.000129504
91 *165:81 *748:C 0.000187834
*RES
1 *823:Q *166:8 39.0979 
2 *166:8 *166:14 10.7128 
3 *166:14 *166:22 45.0061 
4 *166:22 *751:A1 38.6214 
5 *166:22 *166:47 49.865 
6 *166:47 *166:55 40.0257 
7 *166:55 *166:63 41.0184 
8 *166:63 *166:71 34.0882 
9 *166:71 *748:C 41.0836 
10 *166:14 *166:88 33.8459 
11 *166:88 *747:A 23 
12 *166:8 *166:97 33.4564 
13 *166:97 *694:D 23 
*END

*D_NET *167 0.0230657
*CONN
*I *748:B I *D sky130_fd_sc_hd__and3_1
*I *751:B1 I *D sky130_fd_sc_hd__a21o_1
*I *694:C I *D sky130_fd_sc_hd__and4_1
*I *824:Q O *D sky130_fd_sc_hd__dfrtp_1
*CAP
1 *748:B 0
2 *751:B1 7.20315e-05
3 *694:C 8.72634e-05
4 *824:Q 0
5 *167:60 0.00181186
6 *167:58 0.00272047
7 *167:30 0.00119653
8 *167:16 0.00184708
9 *167:12 0.00220918
10 *167:4 0.00245201
11 *742:A *694:C 1.24376e-05
12 *751:A2 *751:B1 0.000164704
13 *751:A2 *167:30 0.000303448
14 *817:RESET_B *167:30 0
15 *21:20 *167:30 6.12447e-05
16 *47:10 *694:C 0.000116043
17 *53:12 *167:58 1.34354e-05
18 *75:56 *167:16 0.000688672
19 *77:124 *167:16 0.00014983
20 *81:14 *167:12 0.000221746
21 *81:14 *167:16 0.00031392
22 *82:77 *167:30 0.000138718
23 *85:8 *167:16 6.74513e-06
24 *86:14 *167:12 0.000700425
25 *86:14 *167:58 4.5051e-05
26 *97:36 *167:16 0.000112604
27 *100:16 *167:16 0.000420438
28 *108:6 *167:60 0.00232773
29 *108:14 *167:58 0
30 *109:14 *167:58 0.000686235
31 *111:14 *167:12 0.00086712
32 *111:14 *167:16 0.000177754
33 *112:22 *167:60 0.000142152
34 *116:74 *167:58 0
35 *123:12 *167:16 4.36547e-05
36 *128:123 *167:58 0.000177496
37 *130:115 *167:12 0.000369939
38 *133:18 *167:58 0.000213383
39 *137:55 *167:16 0.000215782
40 *141:94 *167:60 0.000218464
41 *142:41 *167:30 0.000402785
42 *144:87 *751:B1 0.000175903
43 *144:87 *167:30 0.000301116
44 *145:34 *167:30 0.000187765
45 *148:10 *167:58 0
46 *148:16 *167:58 0
47 *148:45 *167:16 0.000148652
48 *156:30 *167:30 0.000229558
49 *164:79 *167:30 5.94125e-05
50 *165:21 *167:30 0
51 *165:42 *167:30 0.000205298
52 *165:81 *167:60 4.95908e-05
*RES
1 *824:Q *167:4 23 
2 *167:4 *167:12 42.4775 
3 *167:12 *167:16 32.5761 
4 *167:16 *167:30 38.1379 
5 *167:30 *694:C 40.0921 
6 *167:16 *751:B1 25.0507 
7 *167:4 *167:58 48.1457 
8 *167:58 *167:60 30.16 
9 *167:60 *748:B 23 
*END

*D_NET *168 0.0331991
*CONN
*I *691:B I *D sky130_fd_sc_hd__and4_1
*I *754:A I *D sky130_fd_sc_hd__nor2_1
*I *760:A2 I *D sky130_fd_sc_hd__a31o_1
*I *759:B I *D sky130_fd_sc_hd__and3_1
*I *755:A I *D sky130_fd_sc_hd__nand2_1
*I *825:Q O *D sky130_fd_sc_hd__dfrtp_4
*CAP
1 *691:B 6.95305e-05
2 *754:A 0
3 *760:A2 0.000412675
4 *759:B 0
5 *755:A 0
6 *825:Q 0.000546017
7 *168:84 0.00157022
8 *168:82 0.00239413
9 *168:74 0.00198274
10 *168:60 0.00213117
11 *168:52 0.00186312
12 *168:38 0.00096734
13 *168:26 0.00241741
14 *168:16 0.00197397
15 *168:12 0.000661343
16 *691:B *172:26 0.000135037
17 *760:A2 *760:A1 5.79559e-05
18 *168:74 *172:18 6.16439e-05
19 *714:A2 *168:60 7.40718e-05
20 *714:B1_N *168:60 0.000182049
21 *754:B *168:60 1.34966e-05
22 *754:B *168:74 2.3929e-05
23 *760:B1 *760:A2 2.46906e-05
24 *796:A *168:82 1.59071e-05
25 *816:CLK *168:26 0.000150964
26 *819:RESET_B *168:38 0.000195188
27 *830:CLK *168:74 5.14826e-05
28 *830:D *168:60 2.17486e-05
29 *830:D *168:74 0.000176084
30 *830:RESET_B *168:74 0.00013264
31 *834:CLK *168:26 0.000133402
32 *5:13 *168:52 0.000651967
33 *5:13 *168:60 0.000160348
34 *19:12 *168:38 0
35 *26:18 *168:74 8.11021e-05
36 *29:6 *168:60 0.000991859
37 *29:6 *168:74 0.000181048
38 *29:16 *168:82 0.000119218
39 *32:6 *168:38 9.90285e-05
40 *33:18 *168:84 0.0040011
41 *39:14 *168:12 0.00017681
42 *53:6 *168:82 0.000513956
43 *69:10 *168:38 2.18506e-05
44 *73:18 *168:16 6.82197e-05
45 *73:18 *168:26 5.12254e-05
46 *81:47 *168:38 0.000279052
47 *83:26 *168:84 0.00264757
48 *90:12 *168:60 0.000302325
49 *110:58 *168:38 0.000116182
50 *114:14 *168:38 3.87221e-06
51 *121:10 *168:52 5.20305e-05
52 *123:57 *168:60 0.000294844
53 *128:105 *168:26 2.17486e-05
54 *128:105 *168:52 0.000779022
55 *128:105 *168:60 0.000162589
56 *128:115 *168:26 1.08287e-05
57 *131:20 *168:84 0
58 *133:18 *168:60 0.000135037
59 *133:30 *168:26 0.000432513
60 *133:53 *168:26 0.000175903
61 *133:82 *168:74 4.6954e-05
62 *133:82 *168:82 0.000107663
63 *141:92 *168:12 0.000142418
64 *142:58 *168:84 0
65 *146:57 *691:B 5.3304e-05
66 *147:14 *691:B 2.64616e-05
67 *147:16 *691:B 2.02872e-05
68 *148:20 *168:38 0
69 *149:8 *168:74 1.13812e-05
70 *149:71 *168:74 0.000288569
71 *151:28 *168:26 0.000228223
72 *151:28 *168:38 0.00075484
73 *161:21 *168:12 0.000162169
74 *161:21 *168:52 0.000121192
75 *161:40 *168:12 0.000138708
76 *161:52 *168:74 8.73233e-05
77 *164:104 *168:26 3.83778e-05
*RES
1 *825:Q *168:12 47.9014 
2 *168:12 *168:16 16.5743 
3 *168:16 *168:26 49.5957 
4 *168:26 *168:38 48.2286 
5 *168:38 *755:A 23 
6 *168:26 *759:B 23 
7 *168:16 *168:52 27.47 
8 *168:52 *168:60 42.1979 
9 *168:60 *168:74 45.66 
10 *168:74 *168:82 33.415 
11 *168:82 *168:84 57.1921 
12 *168:84 *760:A2 45.7679 
13 *168:60 *754:A 23 
14 *168:52 *691:B 39.5743 
*END

*D_NET *169 0.0266842
*CONN
*I *759:A I *D sky130_fd_sc_hd__and3_1
*I *691:A I *D sky130_fd_sc_hd__and4_1
*I *760:A1 I *D sky130_fd_sc_hd__a31o_1
*I *758:A I *D sky130_fd_sc_hd__xnor2_1
*I *826:Q O *D sky130_fd_sc_hd__dfrtp_2
*CAP
1 *759:A 0
2 *691:A 0
3 *760:A1 0.000714816
4 *758:A 1.87741e-05
5 *826:Q 0
6 *169:75 0.00191521
7 *169:69 0.00299229
8 *169:54 0.00204729
9 *169:37 0.00146188
10 *169:16 0.00189809
11 *169:10 0.00170731
12 *169:6 0.00154527
13 *169:16 *175:12 0.000337935
14 *169:37 *175:12 1.11851e-05
15 *169:54 *172:26 3.83046e-05
16 *169:69 *171:12 6.48049e-05
17 *169:69 *172:26 0.00019724
18 seg[1] *169:69 2.47015e-05
19 *687:B *169:37 6.09677e-05
20 *702:C *169:75 4.96717e-05
21 *711:C *760:A1 0.000217625
22 *713:C *169:75 0.000523423
23 *756:B *169:37 1.05441e-05
24 *760:A2 *760:A1 5.79559e-05
25 *760:B1 *760:A1 0.00067075
26 *772:B1 *169:75 0.000180022
27 *778:B *169:16 0.000281546
28 *806:A *169:16 9.2057e-05
29 *25:10 *169:16 9.91548e-05
30 *39:10 *169:69 0
31 *40:8 *169:16 2.64616e-05
32 *49:10 *169:10 0.00158241
33 *49:10 *169:54 0.00134687
34 *56:8 *169:75 3.52233e-06
35 *56:16 *169:69 0
36 *69:10 *169:75 7.73735e-05
37 *73:12 *169:54 0.000267828
38 *73:18 *169:54 0.000499181
39 *89:14 *169:37 0.000159544
40 *115:12 *169:37 0.000349498
41 *117:8 *760:A1 0.000145356
42 *123:71 *169:69 0
43 *129:30 *758:A 0.000100069
44 *129:30 *169:16 0.00022266
45 *129:30 *169:37 8.68427e-06
46 *130:78 *169:54 0.00046597
47 *130:91 *169:54 0.000235293
48 *130:158 *169:75 0.000184415
49 *131:10 *760:A1 2.60063e-05
50 *132:125 *760:A1 0.000135722
51 *133:63 *169:69 0.000278634
52 *134:80 *169:69 0.000323533
53 *141:47 *760:A1 5.45644e-05
54 *141:47 *169:37 7.0199e-05
55 *141:79 *169:54 0.000918485
56 *141:111 *169:10 0.000937424
57 *141:111 *169:54 0.000593818
58 *144:30 *169:10 0.00020182
59 *146:72 *169:75 0.000204647
60 *152:16 *169:37 4.53474e-05
*RES
1 *826:Q *169:6 38 
2 *169:6 *169:10 36.2736 
3 *169:10 *169:16 22.5786 
4 *169:16 *758:A 24.0979 
5 *169:16 *169:37 43.2986 
6 *169:37 *760:A1 40.2964 
7 *169:6 *169:54 49.51 
8 *169:54 *691:A 23 
9 *169:54 *169:69 36.6879 
10 *169:69 *169:75 41.8457 
11 *169:75 *759:A 23 
*END

*D_NET *170 0.00985191
*CONN
*I *851:A I *D sky130_fd_sc_hd__buf_1
*I *842:X O *D sky130_fd_sc_hd__buf_1
*CAP
1 *851:A 0
2 *842:X 0.00010063
3 *170:18 0.00153041
4 *170:16 0.00263846
5 *170:8 0.00120868
6 *170:8 *842:A 8.16279e-05
7 *696:A *170:16 0.000402801
8 *752:B *170:16 0.000489284
9 *75:19 *170:16 0
10 *75:107 *170:16 0.000523111
11 *77:86 *170:16 0
12 *106:14 *170:16 0
13 *110:85 *170:16 0.000453999
14 *110:85 *170:18 5.50049e-05
15 *112:22 *170:18 0.000237071
16 *134:54 *170:16 0.000750597
17 *165:69 *170:16 0
18 *165:71 *170:16 0.000306724
19 *165:71 *170:18 0.00107351
*RES
1 *842:X *170:8 39.5743 
2 *170:8 *170:16 47.3557 
3 *170:16 *170:18 35.8771 
4 *170:18 *851:A 23 
*END

*D_NET *171 0.00310601
*CONN
*I *852:A I *D sky130_fd_sc_hd__buf_1
*I *726:Y O *D sky130_fd_sc_hd__nor2_1
*CAP
1 *852:A 0
2 *726:Y 0.00100008
3 *171:12 0.000270663
4 *171:6 0.00127074
5 *39:10 *171:12 0
6 *110:109 *171:6 0.00014507
7 *121:8 *171:6 0.000354651
8 *169:69 *171:12 6.48049e-05
*RES
1 *726:Y *171:6 36.485 
2 *171:6 *171:12 34.7229 
3 *171:12 *852:A 23 
*END

*D_NET *172 0.0145196
*CONN
*I *853:A I *D sky130_fd_sc_hd__buf_1
*I *727:X O *D sky130_fd_sc_hd__o21a_1
*CAP
1 *853:A 0
2 *727:X 0
3 *172:26 0.00146836
4 *172:18 0.00153887
5 *172:12 0.00170355
6 *172:6 0.00163304
7 *172:12 *173:12 0.000236617
8 *691:B *172:26 0.000135037
9 *786:A *172:26 5.3304e-05
10 *836:CLK *172:12 1.11112e-05
11 *26:18 *172:12 0.000340004
12 *26:18 *172:18 0.000136486
13 *44:8 *172:26 0.000101436
14 *53:6 *172:26 0.000969047
15 *74:22 *172:12 8.50457e-05
16 *75:44 *172:12 0
17 *103:28 *172:12 4.70939e-05
18 *129:141 *172:26 9.41704e-05
19 *133:90 *172:12 4.587e-05
20 *135:6 *172:26 0.00193655
21 *142:111 *172:12 2.80281e-05
22 *143:72 *172:12 0.000291595
23 *145:99 *172:12 0.000334993
24 *146:57 *172:26 0.000475208
25 *147:14 *172:26 0.000622351
26 *149:71 *172:18 3.3746e-05
27 *159:37 *172:26 0.00190091
28 *168:74 *172:18 6.16439e-05
29 *169:54 *172:26 3.83046e-05
30 *169:69 *172:26 0.00019724
*RES
1 *727:X *172:6 38 
2 *172:6 *172:12 42.7779 
3 *172:12 *172:18 31.9057 
4 *172:18 *172:26 44.0386 
5 *172:26 *853:A 23 
*END

*D_NET *173 0.0146211
*CONN
*I *854:A I *D sky130_fd_sc_hd__buf_1
*I *842:A I *D sky130_fd_sc_hd__buf_1
*I *725:X O *D sky130_fd_sc_hd__a2111o_1
*CAP
1 *854:A 0
2 *842:A 8.21139e-05
3 *725:X 5.94534e-05
4 *173:31 0.00150769
5 *173:25 0.00252141
6 *173:12 0.00102837
7 *173:6 0.00201943
8 *800:A *173:31 0.000159873
9 *814:RESET_B *173:25 0.000111148
10 *16:10 *173:12 0
11 *31:22 *842:A 0.000276834
12 *34:6 *173:25 0.000625474
13 *34:14 *173:25 0.000385209
14 *48:6 *173:25 0.000246416
15 *57:6 *173:31 0.00143937
16 *74:22 *173:12 8.36198e-05
17 *75:44 *173:12 9.11082e-05
18 *75:44 *173:25 0.000477906
19 *77:86 *173:12 0
20 *81:26 *173:6 0.000146239
21 *81:26 *173:25 0.000609639
22 *83:16 *173:12 3.35885e-06
23 *86:28 *173:12 0
24 *89:20 *173:25 0.000110913
25 *97:36 *173:6 0.000101988
26 *97:36 *173:25 6.55011e-05
27 *106:14 *173:12 0
28 *129:87 *173:25 5.3304e-05
29 *129:102 *173:31 0.000136738
30 *132:68 *173:12 2.36931e-05
31 *133:10 *173:25 0.00015835
32 *136:8 *173:31 5.56279e-05
33 *142:130 *173:31 0.00021677
34 *142:162 *173:31 0.000542761
35 *145:99 *173:12 0.000795935
36 *145:105 *173:12 0
37 *148:58 *173:25 5.4823e-05
38 *163:18 *173:31 0.000111806
39 *170:8 *842:A 8.16279e-05
40 *172:12 *173:12 0.000236617
*RES
1 *725:X *173:6 25.0507 
2 *173:6 *173:12 49.865 
3 *173:12 *842:A 26.0036 
4 *173:6 *173:25 41.0586 
5 *173:25 *173:31 46.4857 
6 *173:31 *854:A 23 
*END

*D_NET *174 0.00919354
*CONN
*I *855:A I *D sky130_fd_sc_hd__buf_1
*I *728:Y O *D sky130_fd_sc_hd__nand2_1
*CAP
1 *855:A 0
2 *728:Y 0.000329629
3 *174:12 0.00198243
4 *174:10 0.00198243
5 *174:8 0.000329629
6 *78:14 *174:12 7.31833e-05
7 *85:8 *174:8 0.000134401
8 *92:14 *174:12 0.00105752
9 *92:24 *174:12 0.00125763
10 *95:37 *174:8 2.33476e-05
11 *145:24 *174:12 0.000846882
12 *154:48 *174:12 0.000475201
13 *157:30 *174:8 8.72173e-05
14 *166:22 *174:8 0.000614032
*RES
1 *728:Y *174:8 46.5964 
2 *174:8 *174:10 15 
3 *174:10 *174:12 42.5471 
4 *174:12 *855:A 23 
*END

*D_NET *175 0.0132759
*CONN
*I *856:A I *D sky130_fd_sc_hd__buf_1
*I *730:X O *D sky130_fd_sc_hd__clkbuf_1
*CAP
1 *856:A 0
2 *730:X 0.000203791
3 *175:18 0.000240167
4 *175:12 0.00424066
5 *175:10 0.0040005
6 *175:8 0.000203791
7 *746:A *175:12 7.43209e-05
8 *778:B *175:12 9.91842e-05
9 *806:A *175:12 0.000373606
10 *25:10 *175:12 3.06803e-05
11 *28:12 *175:8 0.000291656
12 *36:10 *175:12 0.000973712
13 *63:18 *175:18 9.00851e-05
14 *64:12 *175:18 0.000169674
15 *89:14 *175:12 0.000971601
16 *95:8 *175:18 0
17 *106:50 *175:8 0.000498224
18 *107:18 *175:12 1.10658e-05
19 *129:30 *175:12 0.000350072
20 *142:58 *175:8 0.00010404
21 *169:16 *175:12 0.000337935
22 *169:37 *175:12 1.11851e-05
*RES
1 *730:X *175:8 44.8357 
2 *175:8 *175:10 15 
3 *175:10 *175:12 55.8871 
4 *175:12 *175:18 35.075 
5 *175:18 *856:A 23 
*END

*D_NET *176 0.00910936
*CONN
*I *857:A I *D sky130_fd_sc_hd__buf_1
*I *731:Y O *D sky130_fd_sc_hd__a21boi_1
*CAP
1 *857:A 3.7795e-05
2 *731:Y 9.20403e-05
3 *176:12 0.0021501
4 *176:10 0.00211231
5 *176:8 9.20403e-05
6 AN[2] *176:12 1.39431e-05
7 AN[3] *176:12 1.39431e-05
8 *39:6 *176:12 0.00170607
9 *106:54 *176:8 1.13812e-05
10 *143:98 *857:A 0
11 *143:98 *176:12 0.00284197
12 *144:30 *857:A 5.47983e-06
13 *144:30 *176:12 3.22843e-05
*RES
1 *731:Y *176:8 39.5536 
2 *176:8 *176:10 15 
3 *176:10 *176:12 53.9814 
4 *176:12 *857:A 23.8493 
*END
