*SPEF "ieee 1481-1999"
*DESIGN "alu"
*DATE "16:21:32 Sunday May 04, 2025"
*VENDOR "The OpenROAD Project"
*PROGRAM "OpenROAD"
*VERSION "b16bda7e82721d10566ff7e2b68f1ff0be9f9e38"
*DESIGN_FLOW "NAME_SCOPE LOCAL" "PIN_CAP NONE"
*DIVIDER /
*DELIMITER :
*BUS_DELIMITER []
*T_UNIT 1 NS
*C_UNIT 1 PF
*R_UNIT 1 OHM
*L_UNIT 1 HENRY

*NAME_MAP
*3 in1[0]
*4 in1[1]
*5 in1[2]
*6 in1[3]
*7 in1[4]
*8 in1[5]
*9 in1[6]
*10 in1[7]
*11 in2[0]
*12 in2[1]
*13 in2[2]
*14 in2[3]
*15 in2[4]
*16 in2[5]
*17 in2[6]
*18 in2[7]
*19 op[0]
*20 op[1]
*21 op[2]
*22 out[0]
*23 out[1]
*24 out[2]
*25 out[3]
*26 out[4]
*27 out[5]
*28 out[6]
*29 out[7]
*30 _000_
*31 _001_
*32 _002_
*33 _003_
*34 _004_
*35 _005_
*36 _006_
*37 _007_
*38 _008_
*39 _009_
*40 _010_
*41 _011_
*42 _012_
*43 _013_
*44 _014_
*45 _015_
*46 _016_
*47 _017_
*48 _018_
*49 _019_
*50 _020_
*51 _021_
*52 _022_
*53 _023_
*54 _024_
*55 _025_
*56 _026_
*57 _027_
*58 _028_
*59 _029_
*60 _030_
*61 _031_
*62 _032_
*63 _033_
*64 _034_
*65 _035_
*66 _036_
*67 _037_
*68 _038_
*69 _039_
*70 _040_
*71 _041_
*72 _042_
*73 _043_
*74 _044_
*75 _045_
*76 _046_
*77 _047_
*78 _048_
*79 _049_
*80 _050_
*81 _051_
*82 _052_
*83 _053_
*84 _054_
*85 _055_
*86 _056_
*87 _057_
*88 _058_
*89 _059_
*90 _060_
*91 _061_
*92 _062_
*93 _063_
*94 _064_
*95 _065_
*96 _066_
*97 _067_
*98 _068_
*99 _069_
*100 _070_
*101 _071_
*102 _072_
*103 _073_
*104 _074_
*105 _075_
*106 _076_
*107 _077_
*108 _078_
*109 _079_
*110 _080_
*111 _081_
*112 _082_
*113 _083_
*114 _084_
*115 _085_
*116 _086_
*117 _087_
*118 _088_
*119 _089_
*120 _090_
*121 _091_
*122 _092_
*123 _093_
*124 _094_
*125 _095_
*126 _096_
*127 _097_
*128 _098_
*129 _099_
*130 _100_
*131 _101_
*132 _102_
*133 _103_
*134 _104_
*135 _105_
*136 _106_
*137 _107_
*138 _108_
*139 _109_
*140 _110_
*141 _111_
*142 _112_
*143 _113_
*144 _114_
*145 _115_
*146 _116_
*147 _117_
*148 _118_
*149 _119_
*150 _120_
*151 _121_
*152 _122_
*153 _123_
*154 _124_
*155 _125_
*156 _126_
*157 _127_
*158 _128_
*159 _129_
*160 _130_
*161 _131_
*162 _132_
*163 _133_
*164 _134_
*165 _135_
*166 _136_
*167 _137_
*168 _138_
*169 _139_
*170 _140_
*171 _141_
*172 _142_
*173 _143_
*174 _144_
*175 _145_
*176 _146_
*177 _147_
*178 _148_
*179 _149_
*180 _150_
*181 _151_
*182 _152_
*183 _153_
*184 _154_
*185 _155_
*186 _156_
*187 _157_
*188 _158_
*189 _159_
*190 _160_
*191 _161_
*192 _162_
*193 _163_
*194 _164_
*195 _165_
*196 _166_
*197 _167_
*198 _168_
*199 _169_
*200 net1
*201 net10
*202 net11
*203 net12
*204 net13
*205 net14
*206 net15
*207 net16
*208 net17
*209 net18
*210 net19
*211 net2
*212 net20
*213 net21
*214 net22
*215 net23
*216 net24
*217 net25
*218 net26
*219 net27
*220 net28
*221 net29
*222 net3
*223 net30
*224 net31
*225 net4
*226 net5
*227 net6
*228 net7
*229 net8
*230 net9
*231 FILLER_0_0_109
*232 FILLER_0_0_113
*233 FILLER_0_0_125
*234 FILLER_0_0_137
*235 FILLER_0_0_141
*236 FILLER_0_0_15
*237 FILLER_0_0_153
*238 FILLER_0_0_165
*239 FILLER_0_0_169
*240 FILLER_0_0_181
*241 FILLER_0_0_189
*242 FILLER_0_0_27
*243 FILLER_0_0_29
*244 FILLER_0_0_3
*245 FILLER_0_0_41
*246 FILLER_0_0_53
*247 FILLER_0_0_57
*248 FILLER_0_0_69
*249 FILLER_0_0_81
*250 FILLER_0_0_85
*251 FILLER_0_0_97
*252 FILLER_0_10_108
*253 FILLER_0_10_117
*254 FILLER_0_10_129
*255 FILLER_0_10_137
*256 FILLER_0_10_141
*257 FILLER_0_10_15
*258 FILLER_0_10_158
*259 FILLER_0_10_166
*260 FILLER_0_10_174
*261 FILLER_0_10_184
*262 FILLER_0_10_27
*263 FILLER_0_10_29
*264 FILLER_0_10_3
*265 FILLER_0_10_41
*266 FILLER_0_10_53
*267 FILLER_0_10_74
*268 FILLER_0_10_82
*269 FILLER_0_10_92
*270 FILLER_0_11_110
*271 FILLER_0_11_128
*272 FILLER_0_11_143
*273 FILLER_0_11_151
*274 FILLER_0_11_163
*275 FILLER_0_11_167
*276 FILLER_0_11_169
*277 FILLER_0_11_181
*278 FILLER_0_11_189
*279 FILLER_0_11_19
*280 FILLER_0_11_31
*281 FILLER_0_11_43
*282 FILLER_0_11_55
*283 FILLER_0_11_57
*284 FILLER_0_11_69
*285 FILLER_0_11_7
*286 FILLER_0_11_81
*287 FILLER_0_11_93
*288 FILLER_0_12_110
*289 FILLER_0_12_135
*290 FILLER_0_12_139
*291 FILLER_0_12_15
*292 FILLER_0_12_163
*293 FILLER_0_12_169
*294 FILLER_0_12_173
*295 FILLER_0_12_185
*296 FILLER_0_12_189
*297 FILLER_0_12_25
*298 FILLER_0_12_29
*299 FILLER_0_12_3
*300 FILLER_0_12_41
*301 FILLER_0_12_49
*302 FILLER_0_12_57
*303 FILLER_0_12_69
*304 FILLER_0_12_81
*305 FILLER_0_12_85
*306 FILLER_0_12_93
*307 FILLER_0_12_98
*308 FILLER_0_13_104
*309 FILLER_0_13_113
*310 FILLER_0_13_125
*311 FILLER_0_13_137
*312 FILLER_0_13_149
*313 FILLER_0_13_165
*314 FILLER_0_13_169
*315 FILLER_0_13_181
*316 FILLER_0_13_189
*317 FILLER_0_13_19
*318 FILLER_0_13_31
*319 FILLER_0_13_43
*320 FILLER_0_13_55
*321 FILLER_0_13_57
*322 FILLER_0_13_69
*323 FILLER_0_13_7
*324 FILLER_0_13_81
*325 FILLER_0_13_92
*326 FILLER_0_14_109
*327 FILLER_0_14_118
*328 FILLER_0_14_130
*329 FILLER_0_14_138
*330 FILLER_0_14_141
*331 FILLER_0_14_15
*332 FILLER_0_14_153
*333 FILLER_0_14_166
*334 FILLER_0_14_178
*335 FILLER_0_14_27
*336 FILLER_0_14_3
*337 FILLER_0_14_36
*338 FILLER_0_14_48
*339 FILLER_0_14_60
*340 FILLER_0_14_72
*341 FILLER_0_14_85
*342 FILLER_0_14_97
*343 FILLER_0_15_104
*344 FILLER_0_15_113
*345 FILLER_0_15_125
*346 FILLER_0_15_137
*347 FILLER_0_15_149
*348 FILLER_0_15_15
*349 FILLER_0_15_161
*350 FILLER_0_15_167
*351 FILLER_0_15_175
*352 FILLER_0_15_181
*353 FILLER_0_15_189
*354 FILLER_0_15_27
*355 FILLER_0_15_3
*356 FILLER_0_15_39
*357 FILLER_0_15_51
*358 FILLER_0_15_55
*359 FILLER_0_15_57
*360 FILLER_0_15_69
*361 FILLER_0_15_81
*362 FILLER_0_15_89
*363 FILLER_0_16_107
*364 FILLER_0_16_119
*365 FILLER_0_16_131
*366 FILLER_0_16_139
*367 FILLER_0_16_141
*368 FILLER_0_16_153
*369 FILLER_0_16_165
*370 FILLER_0_16_177
*371 FILLER_0_16_189
*372 FILLER_0_16_19
*373 FILLER_0_16_27
*374 FILLER_0_16_29
*375 FILLER_0_16_41
*376 FILLER_0_16_53
*377 FILLER_0_16_65
*378 FILLER_0_16_7
*379 FILLER_0_16_77
*380 FILLER_0_16_83
*381 FILLER_0_17_108
*382 FILLER_0_17_113
*383 FILLER_0_17_125
*384 FILLER_0_17_137
*385 FILLER_0_17_15
*386 FILLER_0_17_175
*387 FILLER_0_17_187
*388 FILLER_0_17_27
*389 FILLER_0_17_3
*390 FILLER_0_17_34
*391 FILLER_0_17_42
*392 FILLER_0_17_49
*393 FILLER_0_17_55
*394 FILLER_0_17_57
*395 FILLER_0_17_69
*396 FILLER_0_17_81
*397 FILLER_0_17_96
*398 FILLER_0_18_109
*399 FILLER_0_18_121
*400 FILLER_0_18_133
*401 FILLER_0_18_139
*402 FILLER_0_18_141
*403 FILLER_0_18_153
*404 FILLER_0_18_165
*405 FILLER_0_18_177
*406 FILLER_0_18_189
*407 FILLER_0_18_25
*408 FILLER_0_18_35
*409 FILLER_0_18_47
*410 FILLER_0_18_59
*411 FILLER_0_18_71
*412 FILLER_0_18_83
*413 FILLER_0_18_85
*414 FILLER_0_18_97
*415 FILLER_0_19_108
*416 FILLER_0_19_113
*417 FILLER_0_19_125
*418 FILLER_0_19_142
*419 FILLER_0_19_15
*420 FILLER_0_19_151
*421 FILLER_0_19_155
*422 FILLER_0_19_161
*423 FILLER_0_19_167
*424 FILLER_0_19_175
*425 FILLER_0_19_187
*426 FILLER_0_19_27
*427 FILLER_0_19_3
*428 FILLER_0_19_39
*429 FILLER_0_19_51
*430 FILLER_0_19_55
*431 FILLER_0_19_57
*432 FILLER_0_19_69
*433 FILLER_0_19_77
*434 FILLER_0_19_84
*435 FILLER_0_19_96
*436 FILLER_0_1_105
*437 FILLER_0_1_111
*438 FILLER_0_1_113
*439 FILLER_0_1_121
*440 FILLER_0_1_125
*441 FILLER_0_1_137
*442 FILLER_0_1_143
*443 FILLER_0_1_149
*444 FILLER_0_1_161
*445 FILLER_0_1_167
*446 FILLER_0_1_169
*447 FILLER_0_1_21
*448 FILLER_0_1_41
*449 FILLER_0_1_53
*450 FILLER_0_1_57
*451 FILLER_0_1_69
*452 FILLER_0_1_81
*453 FILLER_0_1_9
*454 FILLER_0_1_93
*455 FILLER_0_20_109
*456 FILLER_0_20_121
*457 FILLER_0_20_133
*458 FILLER_0_20_139
*459 FILLER_0_20_141
*460 FILLER_0_20_15
*461 FILLER_0_20_153
*462 FILLER_0_20_165
*463 FILLER_0_20_173
*464 FILLER_0_20_180
*465 FILLER_0_20_25
*466 FILLER_0_20_29
*467 FILLER_0_20_3
*468 FILLER_0_20_41
*469 FILLER_0_20_53
*470 FILLER_0_20_65
*471 FILLER_0_20_77
*472 FILLER_0_20_83
*473 FILLER_0_20_85
*474 FILLER_0_20_97
*475 FILLER_0_21_105
*476 FILLER_0_21_111
*477 FILLER_0_21_113
*478 FILLER_0_21_123
*479 FILLER_0_21_128
*480 FILLER_0_21_14
*481 FILLER_0_21_140
*482 FILLER_0_21_152
*483 FILLER_0_21_164
*484 FILLER_0_21_169
*485 FILLER_0_21_181
*486 FILLER_0_21_189
*487 FILLER_0_21_26
*488 FILLER_0_21_38
*489 FILLER_0_21_50
*490 FILLER_0_21_57
*491 FILLER_0_21_69
*492 FILLER_0_21_81
*493 FILLER_0_21_93
*494 FILLER_0_22_109
*495 FILLER_0_22_121
*496 FILLER_0_22_133
*497 FILLER_0_22_139
*498 FILLER_0_22_141
*499 FILLER_0_22_15
*500 FILLER_0_22_153
*501 FILLER_0_22_165
*502 FILLER_0_22_169
*503 FILLER_0_22_173
*504 FILLER_0_22_185
*505 FILLER_0_22_189
*506 FILLER_0_22_27
*507 FILLER_0_22_29
*508 FILLER_0_22_3
*509 FILLER_0_22_41
*510 FILLER_0_22_49
*511 FILLER_0_22_61
*512 FILLER_0_22_73
*513 FILLER_0_22_85
*514 FILLER_0_22_97
*515 FILLER_0_23_101
*516 FILLER_0_23_109
*517 FILLER_0_23_113
*518 FILLER_0_23_125
*519 FILLER_0_23_137
*520 FILLER_0_23_160
*521 FILLER_0_23_169
*522 FILLER_0_23_181
*523 FILLER_0_23_189
*524 FILLER_0_23_19
*525 FILLER_0_23_31
*526 FILLER_0_23_57
*527 FILLER_0_23_69
*528 FILLER_0_23_7
*529 FILLER_0_23_77
*530 FILLER_0_23_89
*531 FILLER_0_24_109
*532 FILLER_0_24_118
*533 FILLER_0_24_130
*534 FILLER_0_24_138
*535 FILLER_0_24_141
*536 FILLER_0_24_15
*537 FILLER_0_24_153
*538 FILLER_0_24_165
*539 FILLER_0_24_177
*540 FILLER_0_24_185
*541 FILLER_0_24_189
*542 FILLER_0_24_27
*543 FILLER_0_24_29
*544 FILLER_0_24_3
*545 FILLER_0_24_41
*546 FILLER_0_24_53
*547 FILLER_0_24_65
*548 FILLER_0_24_77
*549 FILLER_0_24_83
*550 FILLER_0_24_85
*551 FILLER_0_24_97
*552 FILLER_0_25_105
*553 FILLER_0_25_111
*554 FILLER_0_25_113
*555 FILLER_0_25_121
*556 FILLER_0_25_131
*557 FILLER_0_25_143
*558 FILLER_0_25_15
*559 FILLER_0_25_155
*560 FILLER_0_25_167
*561 FILLER_0_25_169
*562 FILLER_0_25_177
*563 FILLER_0_25_189
*564 FILLER_0_25_27
*565 FILLER_0_25_3
*566 FILLER_0_25_39
*567 FILLER_0_25_51
*568 FILLER_0_25_55
*569 FILLER_0_25_57
*570 FILLER_0_25_69
*571 FILLER_0_25_81
*572 FILLER_0_25_93
*573 FILLER_0_26_109
*574 FILLER_0_26_121
*575 FILLER_0_26_133
*576 FILLER_0_26_139
*577 FILLER_0_26_141
*578 FILLER_0_26_153
*579 FILLER_0_26_165
*580 FILLER_0_26_19
*581 FILLER_0_26_27
*582 FILLER_0_26_29
*583 FILLER_0_26_41
*584 FILLER_0_26_69
*585 FILLER_0_26_7
*586 FILLER_0_26_81
*587 FILLER_0_26_85
*588 FILLER_0_26_97
*589 FILLER_0_27_107
*590 FILLER_0_27_111
*591 FILLER_0_27_113
*592 FILLER_0_27_125
*593 FILLER_0_27_137
*594 FILLER_0_27_149
*595 FILLER_0_27_15
*596 FILLER_0_27_161
*597 FILLER_0_27_167
*598 FILLER_0_27_169
*599 FILLER_0_27_181
*600 FILLER_0_27_185
*601 FILLER_0_27_27
*602 FILLER_0_27_3
*603 FILLER_0_27_39
*604 FILLER_0_27_51
*605 FILLER_0_27_55
*606 FILLER_0_27_57
*607 FILLER_0_27_71
*608 FILLER_0_27_83
*609 FILLER_0_27_95
*610 FILLER_0_28_104
*611 FILLER_0_28_116
*612 FILLER_0_28_128
*613 FILLER_0_28_139
*614 FILLER_0_28_141
*615 FILLER_0_28_153
*616 FILLER_0_28_16
*617 FILLER_0_28_165
*618 FILLER_0_28_176
*619 FILLER_0_28_188
*620 FILLER_0_28_20
*621 FILLER_0_28_29
*622 FILLER_0_28_41
*623 FILLER_0_28_53
*624 FILLER_0_28_65
*625 FILLER_0_28_77
*626 FILLER_0_28_83
*627 FILLER_0_28_92
*628 FILLER_0_29_110
*629 FILLER_0_29_113
*630 FILLER_0_29_125
*631 FILLER_0_29_134
*632 FILLER_0_29_146
*633 FILLER_0_29_15
*634 FILLER_0_29_158
*635 FILLER_0_29_166
*636 FILLER_0_29_169
*637 FILLER_0_29_175
*638 FILLER_0_29_180
*639 FILLER_0_29_188
*640 FILLER_0_29_27
*641 FILLER_0_29_3
*642 FILLER_0_29_35
*643 FILLER_0_29_41
*644 FILLER_0_29_53
*645 FILLER_0_29_57
*646 FILLER_0_29_65
*647 FILLER_0_29_74
*648 FILLER_0_29_86
*649 FILLER_0_29_98
*650 FILLER_0_2_108
*651 FILLER_0_2_120
*652 FILLER_0_2_132
*653 FILLER_0_2_141
*654 FILLER_0_2_15
*655 FILLER_0_2_153
*656 FILLER_0_2_165
*657 FILLER_0_2_177
*658 FILLER_0_2_185
*659 FILLER_0_2_189
*660 FILLER_0_2_29
*661 FILLER_0_2_3
*662 FILLER_0_2_41
*663 FILLER_0_2_53
*664 FILLER_0_2_65
*665 FILLER_0_2_77
*666 FILLER_0_2_83
*667 FILLER_0_2_85
*668 FILLER_0_2_97
*669 FILLER_0_30_109
*670 FILLER_0_30_121
*671 FILLER_0_30_133
*672 FILLER_0_30_139
*673 FILLER_0_30_141
*674 FILLER_0_30_15
*675 FILLER_0_30_153
*676 FILLER_0_30_165
*677 FILLER_0_30_177
*678 FILLER_0_30_187
*679 FILLER_0_30_27
*680 FILLER_0_30_29
*681 FILLER_0_30_3
*682 FILLER_0_30_41
*683 FILLER_0_30_53
*684 FILLER_0_30_78
*685 FILLER_0_30_85
*686 FILLER_0_30_97
*687 FILLER_0_31_105
*688 FILLER_0_31_111
*689 FILLER_0_31_113
*690 FILLER_0_31_125
*691 FILLER_0_31_129
*692 FILLER_0_31_135
*693 FILLER_0_31_143
*694 FILLER_0_31_149
*695 FILLER_0_31_15
*696 FILLER_0_31_157
*697 FILLER_0_31_169
*698 FILLER_0_31_183
*699 FILLER_0_31_189
*700 FILLER_0_31_19
*701 FILLER_0_31_39
*702 FILLER_0_31_51
*703 FILLER_0_31_55
*704 FILLER_0_31_57
*705 FILLER_0_31_69
*706 FILLER_0_31_7
*707 FILLER_0_31_81
*708 FILLER_0_31_93
*709 FILLER_0_32_109
*710 FILLER_0_32_11
*711 FILLER_0_32_121
*712 FILLER_0_32_129
*713 FILLER_0_32_135
*714 FILLER_0_32_139
*715 FILLER_0_32_141
*716 FILLER_0_32_153
*717 FILLER_0_32_165
*718 FILLER_0_32_177
*719 FILLER_0_32_189
*720 FILLER_0_32_19
*721 FILLER_0_32_27
*722 FILLER_0_32_29
*723 FILLER_0_32_3
*724 FILLER_0_32_41
*725 FILLER_0_32_53
*726 FILLER_0_32_65
*727 FILLER_0_32_77
*728 FILLER_0_32_83
*729 FILLER_0_32_85
*730 FILLER_0_32_97
*731 FILLER_0_33_106
*732 FILLER_0_33_120
*733 FILLER_0_33_132
*734 FILLER_0_33_150
*735 FILLER_0_33_160
*736 FILLER_0_33_169
*737 FILLER_0_33_181
*738 FILLER_0_33_185
*739 FILLER_0_33_19
*740 FILLER_0_33_31
*741 FILLER_0_33_43
*742 FILLER_0_33_55
*743 FILLER_0_33_57
*744 FILLER_0_33_7
*745 FILLER_0_33_77
*746 FILLER_0_33_85
*747 FILLER_0_33_94
*748 FILLER_0_34_107
*749 FILLER_0_34_113
*750 FILLER_0_34_124
*751 FILLER_0_34_137
*752 FILLER_0_34_141
*753 FILLER_0_34_153
*754 FILLER_0_34_165
*755 FILLER_0_34_177
*756 FILLER_0_34_189
*757 FILLER_0_34_22
*758 FILLER_0_34_29
*759 FILLER_0_34_3
*760 FILLER_0_34_40
*761 FILLER_0_34_52
*762 FILLER_0_34_64
*763 FILLER_0_34_80
*764 FILLER_0_34_85
*765 FILLER_0_34_95
*766 FILLER_0_35_100
*767 FILLER_0_35_113
*768 FILLER_0_35_125
*769 FILLER_0_35_140
*770 FILLER_0_35_144
*771 FILLER_0_35_15
*772 FILLER_0_35_152
*773 FILLER_0_35_164
*774 FILLER_0_35_169
*775 FILLER_0_35_181
*776 FILLER_0_35_189
*777 FILLER_0_35_27
*778 FILLER_0_35_3
*779 FILLER_0_35_35
*780 FILLER_0_35_43
*781 FILLER_0_35_55
*782 FILLER_0_35_64
*783 FILLER_0_35_76
*784 FILLER_0_35_88
*785 FILLER_0_36_105
*786 FILLER_0_36_118
*787 FILLER_0_36_130
*788 FILLER_0_36_138
*789 FILLER_0_36_141
*790 FILLER_0_36_15
*791 FILLER_0_36_153
*792 FILLER_0_36_165
*793 FILLER_0_36_178
*794 FILLER_0_36_24
*795 FILLER_0_36_29
*796 FILLER_0_36_41
*797 FILLER_0_36_53
*798 FILLER_0_36_61
*799 FILLER_0_36_7
*800 FILLER_0_36_75
*801 FILLER_0_36_83
*802 FILLER_0_36_85
*803 FILLER_0_36_97
*804 FILLER_0_37_107
*805 FILLER_0_37_111
*806 FILLER_0_37_113
*807 FILLER_0_37_125
*808 FILLER_0_37_137
*809 FILLER_0_37_149
*810 FILLER_0_37_15
*811 FILLER_0_37_161
*812 FILLER_0_37_167
*813 FILLER_0_37_169
*814 FILLER_0_37_181
*815 FILLER_0_37_189
*816 FILLER_0_37_27
*817 FILLER_0_37_3
*818 FILLER_0_37_35
*819 FILLER_0_37_50
*820 FILLER_0_37_57
*821 FILLER_0_37_69
*822 FILLER_0_37_81
*823 FILLER_0_37_85
*824 FILLER_0_37_95
*825 FILLER_0_38_106
*826 FILLER_0_38_114
*827 FILLER_0_38_121
*828 FILLER_0_38_133
*829 FILLER_0_38_139
*830 FILLER_0_38_141
*831 FILLER_0_38_153
*832 FILLER_0_38_165
*833 FILLER_0_38_177
*834 FILLER_0_38_19
*835 FILLER_0_38_27
*836 FILLER_0_38_29
*837 FILLER_0_38_41
*838 FILLER_0_38_53
*839 FILLER_0_38_61
*840 FILLER_0_38_7
*841 FILLER_0_38_71
*842 FILLER_0_38_83
*843 FILLER_0_38_94
*844 FILLER_0_39_103
*845 FILLER_0_39_111
*846 FILLER_0_39_113
*847 FILLER_0_39_125
*848 FILLER_0_39_137
*849 FILLER_0_39_149
*850 FILLER_0_39_15
*851 FILLER_0_39_161
*852 FILLER_0_39_167
*853 FILLER_0_39_169
*854 FILLER_0_39_181
*855 FILLER_0_39_189
*856 FILLER_0_39_19
*857 FILLER_0_39_3
*858 FILLER_0_39_34
*859 FILLER_0_39_48
*860 FILLER_0_39_57
*861 FILLER_0_39_69
*862 FILLER_0_39_81
*863 FILLER_0_39_93
*864 FILLER_0_3_108
*865 FILLER_0_3_113
*866 FILLER_0_3_126
*867 FILLER_0_3_135
*868 FILLER_0_3_147
*869 FILLER_0_3_159
*870 FILLER_0_3_167
*871 FILLER_0_3_169
*872 FILLER_0_3_177
*873 FILLER_0_3_186
*874 FILLER_0_3_42
*875 FILLER_0_3_54
*876 FILLER_0_3_57
*877 FILLER_0_3_7
*878 FILLER_0_3_72
*879 FILLER_0_3_84
*880 FILLER_0_3_96
*881 FILLER_0_40_106
*882 FILLER_0_40_118
*883 FILLER_0_40_130
*884 FILLER_0_40_134
*885 FILLER_0_40_138
*886 FILLER_0_40_141
*887 FILLER_0_40_15
*888 FILLER_0_40_153
*889 FILLER_0_40_165
*890 FILLER_0_40_179
*891 FILLER_0_40_185
*892 FILLER_0_40_27
*893 FILLER_0_40_29
*894 FILLER_0_40_3
*895 FILLER_0_40_41
*896 FILLER_0_40_53
*897 FILLER_0_40_65
*898 FILLER_0_40_77
*899 FILLER_0_40_83
*900 FILLER_0_40_85
*901 FILLER_0_40_97
*902 FILLER_0_41_105
*903 FILLER_0_41_111
*904 FILLER_0_41_113
*905 FILLER_0_41_125
*906 FILLER_0_41_137
*907 FILLER_0_41_149
*908 FILLER_0_41_161
*909 FILLER_0_41_167
*910 FILLER_0_41_169
*911 FILLER_0_41_181
*912 FILLER_0_41_189
*913 FILLER_0_41_21
*914 FILLER_0_41_33
*915 FILLER_0_41_45
*916 FILLER_0_41_54
*917 FILLER_0_41_57
*918 FILLER_0_41_69
*919 FILLER_0_41_81
*920 FILLER_0_41_9
*921 FILLER_0_41_93
*922 FILLER_0_42_109
*923 FILLER_0_42_121
*924 FILLER_0_42_133
*925 FILLER_0_42_139
*926 FILLER_0_42_146
*927 FILLER_0_42_15
*928 FILLER_0_42_158
*929 FILLER_0_42_170
*930 FILLER_0_42_174
*931 FILLER_0_42_183
*932 FILLER_0_42_189
*933 FILLER_0_42_27
*934 FILLER_0_42_3
*935 FILLER_0_42_43
*936 FILLER_0_42_55
*937 FILLER_0_42_67
*938 FILLER_0_42_79
*939 FILLER_0_42_83
*940 FILLER_0_42_85
*941 FILLER_0_42_97
*942 FILLER_0_43_100
*943 FILLER_0_43_113
*944 FILLER_0_43_125
*945 FILLER_0_43_137
*946 FILLER_0_43_149
*947 FILLER_0_43_161
*948 FILLER_0_43_167
*949 FILLER_0_43_169
*950 FILLER_0_43_177
*951 FILLER_0_43_182
*952 FILLER_0_43_21
*953 FILLER_0_43_33
*954 FILLER_0_43_45
*955 FILLER_0_43_53
*956 FILLER_0_43_57
*957 FILLER_0_43_69
*958 FILLER_0_43_76
*959 FILLER_0_43_88
*960 FILLER_0_43_9
*961 FILLER_0_43_94
*962 FILLER_0_44_110
*963 FILLER_0_44_122
*964 FILLER_0_44_139
*965 FILLER_0_44_141
*966 FILLER_0_44_15
*967 FILLER_0_44_151
*968 FILLER_0_44_163
*969 FILLER_0_44_169
*970 FILLER_0_44_187
*971 FILLER_0_44_27
*972 FILLER_0_44_29
*973 FILLER_0_44_3
*974 FILLER_0_44_41
*975 FILLER_0_44_53
*976 FILLER_0_44_59
*977 FILLER_0_44_72
*978 FILLER_0_44_85
*979 FILLER_0_44_93
*980 FILLER_0_45_105
*981 FILLER_0_45_111
*982 FILLER_0_45_113
*983 FILLER_0_45_125
*984 FILLER_0_45_137
*985 FILLER_0_45_149
*986 FILLER_0_45_15
*987 FILLER_0_45_153
*988 FILLER_0_45_160
*989 FILLER_0_45_169
*990 FILLER_0_45_177
*991 FILLER_0_45_188
*992 FILLER_0_45_23
*993 FILLER_0_45_3
*994 FILLER_0_45_31
*995 FILLER_0_45_43
*996 FILLER_0_45_55
*997 FILLER_0_45_79
*998 FILLER_0_45_85
*999 FILLER_0_45_92
*1000 FILLER_0_45_98
*1001 FILLER_0_46_110
*1002 FILLER_0_46_113
*1003 FILLER_0_46_125
*1004 FILLER_0_46_137
*1005 FILLER_0_46_141
*1006 FILLER_0_46_153
*1007 FILLER_0_46_165
*1008 FILLER_0_46_169
*1009 FILLER_0_46_17
*1010 FILLER_0_46_181
*1011 FILLER_0_46_185
*1012 FILLER_0_46_25
*1013 FILLER_0_46_29
*1014 FILLER_0_46_41
*1015 FILLER_0_46_53
*1016 FILLER_0_46_57
*1017 FILLER_0_46_69
*1018 FILLER_0_46_7
*1019 FILLER_0_46_81
*1020 FILLER_0_46_85
*1021 FILLER_0_46_98
*1022 FILLER_0_4_109
*1023 FILLER_0_4_121
*1024 FILLER_0_4_133
*1025 FILLER_0_4_139
*1026 FILLER_0_4_141
*1027 FILLER_0_4_15
*1028 FILLER_0_4_153
*1029 FILLER_0_4_165
*1030 FILLER_0_4_177
*1031 FILLER_0_4_189
*1032 FILLER_0_4_23
*1033 FILLER_0_4_29
*1034 FILLER_0_4_3
*1035 FILLER_0_4_41
*1036 FILLER_0_4_53
*1037 FILLER_0_4_65
*1038 FILLER_0_4_73
*1039 FILLER_0_4_81
*1040 FILLER_0_4_85
*1041 FILLER_0_4_97
*1042 FILLER_0_5_105
*1043 FILLER_0_5_111
*1044 FILLER_0_5_113
*1045 FILLER_0_5_125
*1046 FILLER_0_5_137
*1047 FILLER_0_5_15
*1048 FILLER_0_5_150
*1049 FILLER_0_5_158
*1050 FILLER_0_5_166
*1051 FILLER_0_5_175
*1052 FILLER_0_5_187
*1053 FILLER_0_5_21
*1054 FILLER_0_5_25
*1055 FILLER_0_5_3
*1056 FILLER_0_5_37
*1057 FILLER_0_5_45
*1058 FILLER_0_5_51
*1059 FILLER_0_5_55
*1060 FILLER_0_5_57
*1061 FILLER_0_5_69
*1062 FILLER_0_5_81
*1063 FILLER_0_5_93
*1064 FILLER_0_6_109
*1065 FILLER_0_6_117
*1066 FILLER_0_6_124
*1067 FILLER_0_6_136
*1068 FILLER_0_6_141
*1069 FILLER_0_6_153
*1070 FILLER_0_6_165
*1071 FILLER_0_6_177
*1072 FILLER_0_6_189
*1073 FILLER_0_6_19
*1074 FILLER_0_6_27
*1075 FILLER_0_6_29
*1076 FILLER_0_6_41
*1077 FILLER_0_6_49
*1078 FILLER_0_6_61
*1079 FILLER_0_6_7
*1080 FILLER_0_6_73
*1081 FILLER_0_6_81
*1082 FILLER_0_6_85
*1083 FILLER_0_6_97
*1084 FILLER_0_7_106
*1085 FILLER_0_7_113
*1086 FILLER_0_7_125
*1087 FILLER_0_7_137
*1088 FILLER_0_7_149
*1089 FILLER_0_7_15
*1090 FILLER_0_7_161
*1091 FILLER_0_7_167
*1092 FILLER_0_7_169
*1093 FILLER_0_7_27
*1094 FILLER_0_7_3
*1095 FILLER_0_7_39
*1096 FILLER_0_7_55
*1097 FILLER_0_7_57
*1098 FILLER_0_7_67
*1099 FILLER_0_7_79
*1100 FILLER_0_7_87
*1101 FILLER_0_7_94
*1102 FILLER_0_8_109
*1103 FILLER_0_8_121
*1104 FILLER_0_8_136
*1105 FILLER_0_8_141
*1106 FILLER_0_8_153
*1107 FILLER_0_8_165
*1108 FILLER_0_8_177
*1109 FILLER_0_8_189
*1110 FILLER_0_8_19
*1111 FILLER_0_8_27
*1112 FILLER_0_8_29
*1113 FILLER_0_8_41
*1114 FILLER_0_8_53
*1115 FILLER_0_8_65
*1116 FILLER_0_8_7
*1117 FILLER_0_8_74
*1118 FILLER_0_8_82
*1119 FILLER_0_8_85
*1120 FILLER_0_8_97
*1121 FILLER_0_9_101
*1122 FILLER_0_9_111
*1123 FILLER_0_9_113
*1124 FILLER_0_9_125
*1125 FILLER_0_9_137
*1126 FILLER_0_9_149
*1127 FILLER_0_9_16
*1128 FILLER_0_9_161
*1129 FILLER_0_9_167
*1130 FILLER_0_9_169
*1131 FILLER_0_9_173
*1132 FILLER_0_9_181
*1133 FILLER_0_9_189
*1134 FILLER_0_9_28
*1135 FILLER_0_9_3
*1136 FILLER_0_9_34
*1137 FILLER_0_9_41
*1138 FILLER_0_9_53
*1139 FILLER_0_9_57
*1140 FILLER_0_9_69
*1141 FILLER_0_9_81
*1142 FILLER_0_9_93
*1143 PHY_EDGE_ROW_0_Left_47
*1144 PHY_EDGE_ROW_0_Right_0
*1145 PHY_EDGE_ROW_10_Left_57
*1146 PHY_EDGE_ROW_10_Right_10
*1147 PHY_EDGE_ROW_11_Left_58
*1148 PHY_EDGE_ROW_11_Right_11
*1149 PHY_EDGE_ROW_12_Left_59
*1150 PHY_EDGE_ROW_12_Right_12
*1151 PHY_EDGE_ROW_13_Left_60
*1152 PHY_EDGE_ROW_13_Right_13
*1153 PHY_EDGE_ROW_14_Left_61
*1154 PHY_EDGE_ROW_14_Right_14
*1155 PHY_EDGE_ROW_15_Left_62
*1156 PHY_EDGE_ROW_15_Right_15
*1157 PHY_EDGE_ROW_16_Left_63
*1158 PHY_EDGE_ROW_16_Right_16
*1159 PHY_EDGE_ROW_17_Left_64
*1160 PHY_EDGE_ROW_17_Right_17
*1161 PHY_EDGE_ROW_18_Left_65
*1162 PHY_EDGE_ROW_18_Right_18
*1163 PHY_EDGE_ROW_19_Left_66
*1164 PHY_EDGE_ROW_19_Right_19
*1165 PHY_EDGE_ROW_1_Left_48
*1166 PHY_EDGE_ROW_1_Right_1
*1167 PHY_EDGE_ROW_20_Left_67
*1168 PHY_EDGE_ROW_20_Right_20
*1169 PHY_EDGE_ROW_21_Left_68
*1170 PHY_EDGE_ROW_21_Right_21
*1171 PHY_EDGE_ROW_22_Left_69
*1172 PHY_EDGE_ROW_22_Right_22
*1173 PHY_EDGE_ROW_23_Left_70
*1174 PHY_EDGE_ROW_23_Right_23
*1175 PHY_EDGE_ROW_24_Left_71
*1176 PHY_EDGE_ROW_24_Right_24
*1177 PHY_EDGE_ROW_25_Left_72
*1178 PHY_EDGE_ROW_25_Right_25
*1179 PHY_EDGE_ROW_26_Left_73
*1180 PHY_EDGE_ROW_26_Right_26
*1181 PHY_EDGE_ROW_27_Left_74
*1182 PHY_EDGE_ROW_27_Right_27
*1183 PHY_EDGE_ROW_28_Left_75
*1184 PHY_EDGE_ROW_28_Right_28
*1185 PHY_EDGE_ROW_29_Left_76
*1186 PHY_EDGE_ROW_29_Right_29
*1187 PHY_EDGE_ROW_2_Left_49
*1188 PHY_EDGE_ROW_2_Right_2
*1189 PHY_EDGE_ROW_30_Left_77
*1190 PHY_EDGE_ROW_30_Right_30
*1191 PHY_EDGE_ROW_31_Left_78
*1192 PHY_EDGE_ROW_31_Right_31
*1193 PHY_EDGE_ROW_32_Left_79
*1194 PHY_EDGE_ROW_32_Right_32
*1195 PHY_EDGE_ROW_33_Left_80
*1196 PHY_EDGE_ROW_33_Right_33
*1197 PHY_EDGE_ROW_34_Left_81
*1198 PHY_EDGE_ROW_34_Right_34
*1199 PHY_EDGE_ROW_35_Left_82
*1200 PHY_EDGE_ROW_35_Right_35
*1201 PHY_EDGE_ROW_36_Left_83
*1202 PHY_EDGE_ROW_36_Right_36
*1203 PHY_EDGE_ROW_37_Left_84
*1204 PHY_EDGE_ROW_37_Right_37
*1205 PHY_EDGE_ROW_38_Left_85
*1206 PHY_EDGE_ROW_38_Right_38
*1207 PHY_EDGE_ROW_39_Left_86
*1208 PHY_EDGE_ROW_39_Right_39
*1209 PHY_EDGE_ROW_3_Left_50
*1210 PHY_EDGE_ROW_3_Right_3
*1211 PHY_EDGE_ROW_40_Left_87
*1212 PHY_EDGE_ROW_40_Right_40
*1213 PHY_EDGE_ROW_41_Left_88
*1214 PHY_EDGE_ROW_41_Right_41
*1215 PHY_EDGE_ROW_42_Left_89
*1216 PHY_EDGE_ROW_42_Right_42
*1217 PHY_EDGE_ROW_43_Left_90
*1218 PHY_EDGE_ROW_43_Right_43
*1219 PHY_EDGE_ROW_44_Left_91
*1220 PHY_EDGE_ROW_44_Right_44
*1221 PHY_EDGE_ROW_45_Left_92
*1222 PHY_EDGE_ROW_45_Right_45
*1223 PHY_EDGE_ROW_46_Left_93
*1224 PHY_EDGE_ROW_46_Right_46
*1225 PHY_EDGE_ROW_4_Left_51
*1226 PHY_EDGE_ROW_4_Right_4
*1227 PHY_EDGE_ROW_5_Left_52
*1228 PHY_EDGE_ROW_5_Right_5
*1229 PHY_EDGE_ROW_6_Left_53
*1230 PHY_EDGE_ROW_6_Right_6
*1231 PHY_EDGE_ROW_7_Left_54
*1232 PHY_EDGE_ROW_7_Right_7
*1233 PHY_EDGE_ROW_8_Left_55
*1234 PHY_EDGE_ROW_8_Right_8
*1235 PHY_EDGE_ROW_9_Left_56
*1236 PHY_EDGE_ROW_9_Right_9
*1237 TAP_TAPCELL_ROW_0_94
*1238 TAP_TAPCELL_ROW_0_95
*1239 TAP_TAPCELL_ROW_0_96
*1240 TAP_TAPCELL_ROW_0_97
*1241 TAP_TAPCELL_ROW_0_98
*1242 TAP_TAPCELL_ROW_0_99
*1243 TAP_TAPCELL_ROW_10_127
*1244 TAP_TAPCELL_ROW_10_128
*1245 TAP_TAPCELL_ROW_10_129
*1246 TAP_TAPCELL_ROW_11_130
*1247 TAP_TAPCELL_ROW_11_131
*1248 TAP_TAPCELL_ROW_11_132
*1249 TAP_TAPCELL_ROW_12_133
*1250 TAP_TAPCELL_ROW_12_134
*1251 TAP_TAPCELL_ROW_12_135
*1252 TAP_TAPCELL_ROW_13_136
*1253 TAP_TAPCELL_ROW_13_137
*1254 TAP_TAPCELL_ROW_13_138
*1255 TAP_TAPCELL_ROW_14_139
*1256 TAP_TAPCELL_ROW_14_140
*1257 TAP_TAPCELL_ROW_14_141
*1258 TAP_TAPCELL_ROW_15_142
*1259 TAP_TAPCELL_ROW_15_143
*1260 TAP_TAPCELL_ROW_15_144
*1261 TAP_TAPCELL_ROW_16_145
*1262 TAP_TAPCELL_ROW_16_146
*1263 TAP_TAPCELL_ROW_16_147
*1264 TAP_TAPCELL_ROW_17_148
*1265 TAP_TAPCELL_ROW_17_149
*1266 TAP_TAPCELL_ROW_17_150
*1267 TAP_TAPCELL_ROW_18_151
*1268 TAP_TAPCELL_ROW_18_152
*1269 TAP_TAPCELL_ROW_18_153
*1270 TAP_TAPCELL_ROW_19_154
*1271 TAP_TAPCELL_ROW_19_155
*1272 TAP_TAPCELL_ROW_19_156
*1273 TAP_TAPCELL_ROW_1_100
*1274 TAP_TAPCELL_ROW_1_101
*1275 TAP_TAPCELL_ROW_1_102
*1276 TAP_TAPCELL_ROW_20_157
*1277 TAP_TAPCELL_ROW_20_158
*1278 TAP_TAPCELL_ROW_20_159
*1279 TAP_TAPCELL_ROW_21_160
*1280 TAP_TAPCELL_ROW_21_161
*1281 TAP_TAPCELL_ROW_21_162
*1282 TAP_TAPCELL_ROW_22_163
*1283 TAP_TAPCELL_ROW_22_164
*1284 TAP_TAPCELL_ROW_22_165
*1285 TAP_TAPCELL_ROW_23_166
*1286 TAP_TAPCELL_ROW_23_167
*1287 TAP_TAPCELL_ROW_23_168
*1288 TAP_TAPCELL_ROW_24_169
*1289 TAP_TAPCELL_ROW_24_170
*1290 TAP_TAPCELL_ROW_24_171
*1291 TAP_TAPCELL_ROW_25_172
*1292 TAP_TAPCELL_ROW_25_173
*1293 TAP_TAPCELL_ROW_25_174
*1294 TAP_TAPCELL_ROW_26_175
*1295 TAP_TAPCELL_ROW_26_176
*1296 TAP_TAPCELL_ROW_26_177
*1297 TAP_TAPCELL_ROW_27_178
*1298 TAP_TAPCELL_ROW_27_179
*1299 TAP_TAPCELL_ROW_27_180
*1300 TAP_TAPCELL_ROW_28_181
*1301 TAP_TAPCELL_ROW_28_182
*1302 TAP_TAPCELL_ROW_28_183
*1303 TAP_TAPCELL_ROW_29_184
*1304 TAP_TAPCELL_ROW_29_185
*1305 TAP_TAPCELL_ROW_29_186
*1306 TAP_TAPCELL_ROW_2_103
*1307 TAP_TAPCELL_ROW_2_104
*1308 TAP_TAPCELL_ROW_2_105
*1309 TAP_TAPCELL_ROW_30_187
*1310 TAP_TAPCELL_ROW_30_188
*1311 TAP_TAPCELL_ROW_30_189
*1312 TAP_TAPCELL_ROW_31_190
*1313 TAP_TAPCELL_ROW_31_191
*1314 TAP_TAPCELL_ROW_31_192
*1315 TAP_TAPCELL_ROW_32_193
*1316 TAP_TAPCELL_ROW_32_194
*1317 TAP_TAPCELL_ROW_32_195
*1318 TAP_TAPCELL_ROW_33_196
*1319 TAP_TAPCELL_ROW_33_197
*1320 TAP_TAPCELL_ROW_33_198
*1321 TAP_TAPCELL_ROW_34_199
*1322 TAP_TAPCELL_ROW_34_200
*1323 TAP_TAPCELL_ROW_34_201
*1324 TAP_TAPCELL_ROW_35_202
*1325 TAP_TAPCELL_ROW_35_203
*1326 TAP_TAPCELL_ROW_35_204
*1327 TAP_TAPCELL_ROW_36_205
*1328 TAP_TAPCELL_ROW_36_206
*1329 TAP_TAPCELL_ROW_36_207
*1330 TAP_TAPCELL_ROW_37_208
*1331 TAP_TAPCELL_ROW_37_209
*1332 TAP_TAPCELL_ROW_37_210
*1333 TAP_TAPCELL_ROW_38_211
*1334 TAP_TAPCELL_ROW_38_212
*1335 TAP_TAPCELL_ROW_38_213
*1336 TAP_TAPCELL_ROW_39_214
*1337 TAP_TAPCELL_ROW_39_215
*1338 TAP_TAPCELL_ROW_39_216
*1339 TAP_TAPCELL_ROW_3_106
*1340 TAP_TAPCELL_ROW_3_107
*1341 TAP_TAPCELL_ROW_3_108
*1342 TAP_TAPCELL_ROW_40_217
*1343 TAP_TAPCELL_ROW_40_218
*1344 TAP_TAPCELL_ROW_40_219
*1345 TAP_TAPCELL_ROW_41_220
*1346 TAP_TAPCELL_ROW_41_221
*1347 TAP_TAPCELL_ROW_41_222
*1348 TAP_TAPCELL_ROW_42_223
*1349 TAP_TAPCELL_ROW_42_224
*1350 TAP_TAPCELL_ROW_42_225
*1351 TAP_TAPCELL_ROW_43_226
*1352 TAP_TAPCELL_ROW_43_227
*1353 TAP_TAPCELL_ROW_43_228
*1354 TAP_TAPCELL_ROW_44_229
*1355 TAP_TAPCELL_ROW_44_230
*1356 TAP_TAPCELL_ROW_44_231
*1357 TAP_TAPCELL_ROW_45_232
*1358 TAP_TAPCELL_ROW_45_233
*1359 TAP_TAPCELL_ROW_45_234
*1360 TAP_TAPCELL_ROW_46_235
*1361 TAP_TAPCELL_ROW_46_236
*1362 TAP_TAPCELL_ROW_46_237
*1363 TAP_TAPCELL_ROW_46_238
*1364 TAP_TAPCELL_ROW_46_239
*1365 TAP_TAPCELL_ROW_46_240
*1366 TAP_TAPCELL_ROW_4_109
*1367 TAP_TAPCELL_ROW_4_110
*1368 TAP_TAPCELL_ROW_4_111
*1369 TAP_TAPCELL_ROW_5_112
*1370 TAP_TAPCELL_ROW_5_113
*1371 TAP_TAPCELL_ROW_5_114
*1372 TAP_TAPCELL_ROW_6_115
*1373 TAP_TAPCELL_ROW_6_116
*1374 TAP_TAPCELL_ROW_6_117
*1375 TAP_TAPCELL_ROW_7_118
*1376 TAP_TAPCELL_ROW_7_119
*1377 TAP_TAPCELL_ROW_7_120
*1378 TAP_TAPCELL_ROW_8_121
*1379 TAP_TAPCELL_ROW_8_122
*1380 TAP_TAPCELL_ROW_8_123
*1381 TAP_TAPCELL_ROW_9_124
*1382 TAP_TAPCELL_ROW_9_125
*1383 TAP_TAPCELL_ROW_9_126
*1384 _170_
*1385 _171_
*1386 _172_
*1387 _173_
*1388 _174_
*1389 _175_
*1390 _176_
*1391 _177_
*1392 _178_
*1393 _179_
*1394 _180_
*1395 _181_
*1396 _182_
*1397 _183_
*1398 _184_
*1399 _185_
*1400 _186_
*1401 _187_
*1402 _188_
*1403 _189_
*1404 _190_
*1405 _191_
*1406 _192_
*1407 _193_
*1408 _194_
*1409 _195_
*1410 _196_
*1411 _197_
*1412 _198_
*1413 _199_
*1414 _200_
*1415 _201_
*1416 _202_
*1417 _203_
*1418 _204_
*1419 _205_
*1420 _206_
*1421 _207_
*1422 _208_
*1423 _209_
*1424 _210_
*1425 _211_
*1426 _212_
*1427 _213_
*1428 _214_
*1429 _215_
*1430 _216_
*1431 _217_
*1432 _218_
*1433 _219_
*1434 _220_
*1435 _221_
*1436 _222_
*1437 _223_
*1438 _224_
*1439 _225_
*1440 _226_
*1441 _227_
*1442 _228_
*1443 _229_
*1444 _230_
*1445 _231_
*1446 _232_
*1447 _233_
*1448 _234_
*1449 _235_
*1450 _236_
*1451 _237_
*1452 _238_
*1453 _239_
*1454 _240_
*1455 _241_
*1456 _242_
*1457 _243_
*1458 _244_
*1459 _245_
*1460 _246_
*1461 _247_
*1462 _248_
*1463 _249_
*1464 _250_
*1465 _251_
*1466 _252_
*1467 _253_
*1468 _254_
*1469 _255_
*1470 _256_
*1471 _257_
*1472 _258_
*1473 _259_
*1474 _260_
*1475 _261_
*1476 _262_
*1477 _263_
*1478 _264_
*1479 _265_
*1480 _266_
*1481 _267_
*1482 _268_
*1483 _269_
*1484 _270_
*1485 _271_
*1486 _272_
*1487 _273_
*1488 _274_
*1489 _275_
*1490 _276_
*1491 _277_
*1492 _278_
*1493 _279_
*1494 _280_
*1495 _281_
*1496 _282_
*1497 _283_
*1498 _284_
*1499 _285_
*1500 _286_
*1501 _287_
*1502 _288_
*1503 _289_
*1504 _290_
*1505 _291_
*1506 _292_
*1507 _293_
*1508 _294_
*1509 _295_
*1510 _296_
*1511 _297_
*1512 _298_
*1513 _299_
*1514 _300_
*1515 _301_
*1516 _302_
*1517 _303_
*1518 _304_
*1519 _305_
*1520 _306_
*1521 _307_
*1522 _308_
*1523 _309_
*1524 _310_
*1525 _311_
*1526 _312_
*1527 _313_
*1528 _314_
*1529 _315_
*1530 _316_
*1531 _317_
*1532 _318_
*1533 _319_
*1534 _320_
*1535 _321_
*1536 _322_
*1537 _323_
*1538 _324_
*1539 _325_
*1540 _326_
*1541 _327_
*1542 _328_
*1543 _329_
*1544 _330_
*1545 _331_
*1546 _332_
*1547 _333_
*1548 _334_
*1549 _335_
*1550 _336_
*1551 _337_
*1552 _338_
*1553 _339_
*1554 _340_
*1555 _341_
*1556 _342_
*1557 _343_
*1558 _344_
*1559 _345_
*1560 _346_
*1561 _347_
*1562 input1
*1563 input10
*1564 input11
*1565 input12
*1566 input13
*1567 input14
*1568 input15
*1569 input16
*1570 input17
*1571 input18
*1572 input19
*1573 input2
*1574 input3
*1575 input4
*1576 input5
*1577 input6
*1578 input7
*1579 input8
*1580 input9
*1581 output20
*1582 output21
*1583 output22
*1584 output23
*1585 output24
*1586 output25
*1587 output26
*1588 output27
*1589 rebuffer1
*1590 rebuffer2
*1591 rebuffer3
*1592 rebuffer4

*PORTS
in1[0] I
in1[1] I
in1[2] I
in1[3] I
in1[4] I
in1[5] I
in1[6] I
in1[7] I
in2[0] I
in2[1] I
in2[2] I
in2[3] I
in2[4] I
in2[5] I
in2[6] I
in2[7] I
op[0] I
op[1] I
op[2] I
out[0] O
out[1] O
out[2] O
out[3] O
out[4] O
out[5] O
out[6] O
out[7] O

*D_NET *3 0.000523624
*CONN
*P in1[0] I
*I *1562:A I *D sky130_fd_sc_hd__dlymetal6s2s_1
*CAP
1 in1[0] 0.000261812
2 *1562:A 0.000261812
3 *1562:A *1569:A 0
4 *1562:A *1573:A 0
*RES
1 in1[0] *1562:A 6.8343 
*END

*D_NET *4 0.000627517
*CONN
*P in1[1] I
*I *1573:A I *D sky130_fd_sc_hd__clkbuf_2
*CAP
1 in1[1] 0.000288397
2 *1573:A 0.000288397
3 *1573:A *1484:B 5.07229e-05
4 *1573:A *1574:A 0
5 *1562:A *1573:A 0
*RES
1 in1[1] *1573:A 6.18003 
*END

*D_NET *5 0.000551651
*CONN
*P in1[2] I
*I *1574:A I *D sky130_fd_sc_hd__buf_2
*CAP
1 in1[2] 0.000275825
2 *1574:A 0.000275825
3 *1574:A *1484:B 0
4 *1574:A *1575:A 0
5 *1573:A *1574:A 0
*RES
1 in1[2] *1574:A 7.0893 
*END

*D_NET *6 0.000645119
*CONN
*P in1[3] I
*I *1575:A I *D sky130_fd_sc_hd__buf_2
*CAP
1 in1[3] 0.00032256
2 *1575:A 0.00032256
3 *1575:A *1484:B 0
4 *1575:A *1576:A 0
5 *1574:A *1575:A 0
*RES
1 in1[3] *1575:A 6.63177 
*END

*D_NET *7 0.000535568
*CONN
*P in1[4] I
*I *1576:A I *D sky130_fd_sc_hd__buf_2
*CAP
1 in1[4] 0.000267784
2 *1576:A 0.000267784
3 *1576:A *1577:A 0
4 *1575:A *1576:A 0
*RES
1 in1[4] *1576:A 6.8343 
*END

*D_NET *8 0.00059109
*CONN
*P in1[5] I
*I *1577:A I *D sky130_fd_sc_hd__buf_2
*CAP
1 in1[5] 0.000295545
2 *1577:A 0.000295545
3 *1577:A *1578:A 0
4 *1577:A *191:12 0
5 *1576:A *1577:A 0
*RES
1 in1[5] *1577:A 6.37677 
*END

*D_NET *9 0.000563595
*CONN
*P in1[6] I
*I *1578:A I *D sky130_fd_sc_hd__buf_2
*CAP
1 in1[6] 0.000281798
2 *1578:A 0.000281798
3 *1578:A *1579:A 0
4 *1577:A *1578:A 0
*RES
1 in1[6] *1578:A 7.0893 
*END

*D_NET *10 0.000604568
*CONN
*P in1[7] I
*I *1579:A I *D sky130_fd_sc_hd__buf_4
*CAP
1 in1[7] 0.000302284
2 *1579:A 0.000302284
3 *1578:A *1579:A 0
*RES
1 in1[7] *1579:A 6.63177 
*END

*D_NET *11 0.000601083
*CONN
*P in2[0] I
*I *1580:A I *D sky130_fd_sc_hd__clkbuf_2
*CAP
1 in2[0] 0.000300541
2 *1580:A 0.000300541
3 *1580:A *1563:A 0
4 *1580:A *1572:A 0
*RES
1 in2[0] *1580:A 7.1793 
*END

*D_NET *12 0.000653585
*CONN
*P in2[1] I
*I *1563:A I *D sky130_fd_sc_hd__buf_2
*CAP
1 in2[1] 0.000326792
2 *1563:A 0.000326792
3 *1563:A *1564:A 0
4 *1563:A *203:31 0
5 *1580:A *1563:A 0
*RES
1 in2[1] *1563:A 7.8543 
*END

*D_NET *13 0.00062409
*CONN
*P in2[2] I
*I *1564:A I *D sky130_fd_sc_hd__clkbuf_2
*CAP
1 in2[2] 0.000312045
2 *1564:A 0.000312045
3 *1564:A *1565:A 0
4 *1564:A *203:31 0
5 *1563:A *1564:A 0
*RES
1 in2[2] *1564:A 7.4343 
*END

*D_NET *14 0.000904069
*CONN
*P in2[3] I
*I *1565:A I *D sky130_fd_sc_hd__clkbuf_2
*CAP
1 in2[3] 0.00027601
2 *1565:A 0.00027601
3 *1565:A *1388:B 0.000103207
4 *1565:A *1566:A 0
5 *1565:A *203:31 7.70828e-05
6 *1565:A *206:87 0.000171759
7 *1564:A *1565:A 0
*RES
1 in2[3] *1565:A 6.69003 
*END

*D_NET *15 0.000614252
*CONN
*P in2[4] I
*I *1566:A I *D sky130_fd_sc_hd__clkbuf_4
*CAP
1 in2[4] 0.000307126
2 *1566:A 0.000307126
3 *1566:A *1567:A 0
4 *1565:A *1566:A 0
*RES
1 in2[4] *1566:A 7.1793 
*END

*D_NET *16 0.000653585
*CONN
*P in2[5] I
*I *1567:A I *D sky130_fd_sc_hd__buf_2
*CAP
1 in2[5] 0.000326792
2 *1567:A 0.000326792
3 *1567:A *1388:B 0
4 *1567:A *1568:A 0
5 *1566:A *1567:A 0
*RES
1 in2[5] *1567:A 7.8543 
*END

*D_NET *17 0.00056187
*CONN
*P in2[6] I
*I *1568:A I *D sky130_fd_sc_hd__buf_2
*CAP
1 in2[6] 0.000280935
2 *1568:A 0.000280935
3 *1568:A *1388:B 0
4 *1568:A *1569:A 0
5 *1567:A *1568:A 0
*RES
1 in2[6] *1568:A 7.0893 
*END

*D_NET *18 0.000783123
*CONN
*P in2[7] I
*I *1569:A I *D sky130_fd_sc_hd__clkbuf_4
*CAP
1 in2[7] 0.000306485
2 *1569:A 0.000306485
3 *1569:A *205:12 0.000170152
4 *1562:A *1569:A 0
5 *1568:A *1569:A 0
*RES
1 in2[7] *1569:A 6.69003 
*END

*D_NET *19 0.000645774
*CONN
*P op[0] I
*I *1570:A I *D sky130_fd_sc_hd__buf_2
*CAP
1 op[0] 0.000322887
2 *1570:A 0.000322887
3 *1570:A *1531:A 0
4 *1570:A *1571:A 0
*RES
1 op[0] *1570:A 7.8543 
*END

*D_NET *20 0.000607636
*CONN
*P op[1] I
*I *1571:A I *D sky130_fd_sc_hd__clkbuf_4
*CAP
1 op[1] 0.000303818
2 *1571:A 0.000303818
3 *1571:A *1572:A 0
4 *1570:A *1571:A 0
*RES
1 op[1] *1571:A 7.4343 
*END

*D_NET *21 0.000752911
*CONN
*P op[2] I
*I *1572:A I *D sky130_fd_sc_hd__clkbuf_4
*CAP
1 op[2] 0.000352568
2 *1572:A 0.000352568
3 *1572:A *203:31 4.77757e-05
4 *1571:A *1572:A 0
5 *1580:A *1572:A 0
*RES
1 op[2] *1572:A 8.4543 
*END

*D_NET *22 0.000505861
*CONN
*P out[0] O
*I *1581:X O *D sky130_fd_sc_hd__buf_2
*CAP
1 out[0] 0.000247075
2 *1581:X 0.000247075
3 out[0] *1581:A 1.17114e-05
*RES
1 *1581:X out[0] 4.9633 
*END

*D_NET *23 0.00073731
*CONN
*P out[1] O
*I *1582:X O *D sky130_fd_sc_hd__buf_2
*CAP
1 out[1] 0.000348844
2 *1582:X 0.000348844
3 out[1] *182:14 3.96214e-05
4 out[1] *213:32 0
*RES
1 *1582:X out[1] 5.9833 
*END

*D_NET *24 0.000593037
*CONN
*P out[2] O
*I *1583:X O *D sky130_fd_sc_hd__buf_2
*CAP
1 out[2] 0.000287582
2 *1583:X 0.000287582
3 out[2] *1478:A 0
4 out[2] *1489:B 1.17114e-05
5 out[2] *1583:A 6.16226e-06
*RES
1 *1583:X out[2] 4.9633 
*END

*D_NET *25 0.000835017
*CONN
*P out[3] O
*I *1584:X O *D sky130_fd_sc_hd__buf_2
*CAP
1 out[3] 0.000310013
2 *1584:X 0.000310013
3 out[3] *50:29 0.000106344
4 out[3] *182:14 0.000108647
*RES
1 *1584:X out[3] 5.9833 
*END

*D_NET *26 0.000658361
*CONN
*P out[4] O
*I *1585:X O *D sky130_fd_sc_hd__buf_2
*CAP
1 out[4] 0.000309874
2 *1585:X 0.000309874
3 out[4] *50:29 1.88656e-05
4 out[4] *182:14 1.97486e-05
*RES
1 *1585:X out[4] 4.9633 
*END

*D_NET *27 0.000769395
*CONN
*P out[5] O
*I *1586:X O *D sky130_fd_sc_hd__buf_2
*CAP
1 out[5] 0.000291357
2 *1586:X 0.000291357
3 out[5] *1515:B1_N 4.40358e-05
4 out[5] *50:29 0.000106344
5 out[5] *62:18 3.63017e-05
*RES
1 *1586:X out[5] 5.9833 
*END

*D_NET *28 0.000955673
*CONN
*P out[6] O
*I *1587:X O *D sky130_fd_sc_hd__buf_2
*CAP
1 out[6] 0.000468404
2 *1587:X 0.000468404
3 out[6] *1522:A2 1.88656e-05
4 out[6] *188:18 0
*RES
1 *1587:X out[6] 5.25463 
*END

*D_NET *29 0.00114262
*CONN
*P out[7] O
*I *1588:X O *D sky130_fd_sc_hd__buf_6
*CAP
1 out[7] 0.000560344
2 *1588:X 0.000560344
3 out[7] *1588:A 6.69608e-06
4 out[7] *50:12 1.52352e-05
*RES
1 *1588:X out[7] 8.0879 
*END

*D_NET *30 0.0189369
*CONN
*I *1458:A1 I *D sky130_fd_sc_hd__o21a_2
*I *1459:B I *D sky130_fd_sc_hd__or3_4
*I *1456:X O *D sky130_fd_sc_hd__and3_1
*CAP
1 *1458:A1 0.000828973
2 *1459:B 0.00081956
3 *1456:X 0.00258146
4 *30:10 0.00422999
5 *1458:A1 *1413:A3 4.01535e-05
6 *1458:A1 *1413:B1 7.70758e-05
7 *1458:A1 *1495:B 0.000129951
8 *1458:A1 *69:14 0.000537188
9 *1458:A1 *131:62 0.000449759
10 *1458:A1 *131:70 0.000119246
11 *1458:A1 *147:25 0.000145683
12 *1458:A1 *153:12 0.000648041
13 *1458:A1 *195:20 0.000217415
14 *1458:A1 *211:56 0.00063951
15 *1459:B *1437:A 0.00018955
16 *1459:B *1524:A1 1.19928e-05
17 *1459:B *1524:A2 7.18795e-06
18 *1459:B *1524:B1 0.000119866
19 *1459:B *1524:B2 2.49909e-05
20 *1459:B *1525:C 0.000388501
21 *1459:B *131:95 0.000774374
22 *1459:B *132:18 0.00270177
23 *1459:B *148:30 0.000141874
24 *1459:B *210:56 0.000232411
25 *30:10 *1456:A 0.000948161
26 *30:10 *1456:C 0.000150336
27 *30:10 *153:12 0.000429219
28 *30:10 *156:14 0.000922034
29 *30:10 *211:56 0.00043064
*RES
1 *1456:X *30:10 38.58 
2 *30:10 *1459:B 29.925 
3 *30:10 *1458:A1 29.635 
*END

*D_NET *31 0.00806028
*CONN
*I *1458:A2 I *D sky130_fd_sc_hd__o21a_2
*I *1459:C I *D sky130_fd_sc_hd__or3_4
*I *1457:Y O *D sky130_fd_sc_hd__a21oi_1
*CAP
1 *1458:A2 0
2 *1459:C 0.0022256
3 *1457:Y 0.00048821
4 *31:14 0.00271381
5 *1459:C *1413:A1 4.91952e-05
6 *1459:C *1413:B1 0.000280838
7 *1459:C *1415:A 0.000441812
8 *1459:C *1484:B 0
9 *1459:C *1497:A 3.20268e-05
10 *1459:C *33:16 4.75732e-05
11 *1459:C *39:22 0.000592163
12 *1459:C *131:70 8.35068e-05
13 *1459:C *131:95 8.40213e-05
14 *1459:C *132:12 7.06865e-05
15 *1459:C *148:30 0
16 *1459:C *181:87 0
17 *31:14 *1419:B 0.000155928
18 *31:14 *1419:C 0
19 *31:14 *1483:B 0.00066112
20 *31:14 *131:70 4.66108e-05
21 *31:14 *201:71 8.71841e-05
22 *31:14 *210:28 0
*RES
1 *1457:Y *31:14 15.545 
2 *31:14 *1459:C 48.37 
3 *31:14 *1458:A2 1.6 
*END

*D_NET *32 0.0217949
*CONN
*I *1533:B I *D sky130_fd_sc_hd__or3_2
*I *1528:A_N I *D sky130_fd_sc_hd__and2b_1
*I *1464:A2 I *D sky130_fd_sc_hd__o21ai_4
*I *1461:A_N I *D sky130_fd_sc_hd__and3b_2
*I *1458:X O *D sky130_fd_sc_hd__o21a_2
*CAP
1 *1533:B 0.000609039
2 *1528:A_N 0
3 *1464:A2 0.000495399
4 *1461:A_N 0.0025323
5 *1458:X 0.00040396
6 *32:52 0.00077501
7 *32:39 0.00111171
8 *32:8 0.0033866
9 *1461:A_N *1404:A 0.000688687
10 *1461:A_N *1422:B 0.000131581
11 *1461:A_N *1431:B1 1.92979e-05
12 *1461:A_N *1446:A1 4.89337e-05
13 *1461:A_N *1461:C 2.0851e-06
14 *1461:A_N *1505:B1 0.000531046
15 *1461:A_N *1514:A1 0.00011156
16 *1461:A_N *1516:A2 0.000136288
17 *1461:A_N *66:36 0.0002668
18 *1461:A_N *69:14 0.000173598
19 *1461:A_N *117:12 0.00127892
20 *1461:A_N *173:12 0.000807773
21 *1461:A_N *184:20 9.05535e-05
22 *1461:A_N *193:56 0.000149359
23 *1461:A_N *200:24 0.000245893
24 *1461:A_N *211:24 0.000262169
25 *1461:A_N *211:56 0.000604723
26 *1461:A_N *220:22 9.58678e-06
27 *1464:A2 *1464:B1 0.000271074
28 *1464:A2 *1550:A1 0.000272237
29 *1464:A2 *1589:A 2.01504e-05
30 *1464:A2 *38:6 0.00048853
31 *1464:A2 *130:33 2.72392e-05
32 *1464:A2 *136:69 0.0017675
33 *1533:B *1471:A3 0
34 *1533:B *1518:C1 0.00043145
35 *1533:B *1533:C 0.000389945
36 *1533:B *210:10 0.00046049
37 *32:8 *131:62 0.00029047
38 *32:39 *1511:A1 0.0004682
39 *32:39 *69:14 8.08747e-05
40 *32:39 *117:12 0.000179392
41 *32:39 *210:22 0.000924496
42 *32:52 *1404:A 1.13394e-05
43 *32:52 *1511:A1 0.000139778
44 *32:52 *1518:C1 1.21329e-05
45 *32:52 *1549:C1 0.000173284
46 *32:52 *210:10 0.000153058
47 *32:52 *210:22 0.000360378
*RES
1 *1458:X *32:8 8.535 
2 *32:8 *1461:A_N 44.3019 
3 *32:8 *32:39 13.92 
4 *32:39 *1464:A2 20.625 
5 *32:39 *32:52 5.97 
6 *32:52 *1528:A_N 3.6 
7 *32:52 *1533:B 16.695 
*END

*D_NET *33 0.022867
*CONN
*I *1528:B I *D sky130_fd_sc_hd__and2b_1
*I *1461:B I *D sky130_fd_sc_hd__and3b_2
*I *1459:X O *D sky130_fd_sc_hd__or3_4
*CAP
1 *1528:B 0.00110612
2 *1461:B 0.00198719
3 *1459:X 0.00243312
4 *33:16 0.00552643
5 *1461:B *1422:A_N 0.000209105
6 *1461:B *1422:B 0.000146361
7 *1461:B *1446:B2 2.01565e-05
8 *1461:B *1452:B 0.000187409
9 *1461:B *1544:A 0.000231181
10 *1461:B *66:36 0.000339733
11 *1461:B *68:10 0.000372521
12 *1461:B *69:14 0.000664887
13 *1461:B *95:28 2.15594e-05
14 *1461:B *144:30 0.00114078
15 *1461:B *153:12 0.000372521
16 *1461:B *190:32 0.000175088
17 *1461:B *195:20 0.000347359
18 *1461:B *227:81 4.86958e-05
19 *1461:B *227:106 0.000185593
20 *1461:B *228:35 0.000136347
21 *1528:B *1404:A 0.000451869
22 *1528:B *1409:B 4.75576e-05
23 *1528:B *1441:B 0.000492012
24 *1528:B *1495:B 0.000303771
25 *1528:B *61:22 8.33066e-06
26 *1528:B *66:36 0.000132923
27 *1528:B *68:10 0.00151866
28 *1528:B *98:12 0.000319861
29 *1528:B *153:12 0.00193212
30 *1528:B *186:65 4.77719e-05
31 *1528:B *211:56 1.07797e-05
32 *1528:B *215:12 0.000258427
33 *33:16 *1502:A1 0.00018955
34 *33:16 *1551:B 0.000153816
35 *33:16 *1554:A_N 6.90254e-05
36 *33:16 *1556:B1 7.03219e-05
37 *33:16 *131:95 0.000105802
38 *33:16 *148:30 0.00022436
39 *33:16 *148:46 0.000830353
40 *1459:C *33:16 4.75732e-05
*RES
1 *1459:X *33:16 36.97 
2 *33:16 *1461:B 41.2974 
3 *33:16 *1528:B 40.035 
*END

*D_NET *34 0.00457322
*CONN
*I *1529:B I *D sky130_fd_sc_hd__nor2_1
*I *1461:C I *D sky130_fd_sc_hd__and3b_2
*I *1460:X O *D sky130_fd_sc_hd__or2b_1
*CAP
1 *1529:B 0.00023994
2 *1461:C 0.00106619
3 *1460:X 0
4 *34:4 0.00130613
5 *1461:C *1446:B2 8.00926e-05
6 *1461:C *1460:B_N 4.23612e-05
7 *1461:C *35:12 5.12715e-05
8 *1461:C *35:61 0
9 *1461:C *130:67 2.19024e-05
10 *1461:C *142:112 0.000247962
11 *1461:C *144:30 5.01066e-05
12 *1461:C *158:49 7.06865e-05
13 *1461:C *168:36 0.000276322
14 *1461:C *220:22 0
15 *1529:B *1402:A 0.00020021
16 *1529:B *1417:B 0.00029933
17 *1529:B *1455:A2 0.000102863
18 *1529:B *1467:A 0.000162987
19 *1529:B *63:10 0.000330434
20 *1529:B *171:20 2.23407e-05
21 *1461:A_N *1461:C 2.0851e-06
*RES
1 *1460:X *34:4 1.6 
2 *34:4 *1461:C 21.2938 
3 *34:4 *1529:B 12.905 
*END

*D_NET *35 0.0243235
*CONN
*I *1533:C I *D sky130_fd_sc_hd__or3_2
*I *1464:A1 I *D sky130_fd_sc_hd__o21ai_4
*I *1530:A I *D sky130_fd_sc_hd__or3b_1
*I *1461:X O *D sky130_fd_sc_hd__and3b_2
*CAP
1 *1533:C 0.00120696
2 *1464:A1 0
3 *1530:A 0.000475477
4 *1461:X 0.000172725
5 *35:71 0.00308071
6 *35:61 0.00265413
7 *35:12 0.00142858
8 *1530:A *1505:A2 4.21973e-05
9 *1530:A *1530:C_N 0.00112092
10 *1530:A *1552:C 0.000336143
11 *1530:A *99:14 0.00149548
12 *1530:A *178:12 0.000337832
13 *1530:A *196:26 0.000275162
14 *1533:C *1488:B1 0.000447001
15 *1533:C *1490:C1 0.00090796
16 *1533:C *1492:A1 0.000507094
17 *1533:C *1492:B1 0.000218425
18 *1533:C *1521:A3 0.000234753
19 *1533:C *1533:A 0.00138321
20 *1533:C *182:8 0.00142034
21 *35:12 *1446:B2 8.52845e-05
22 *35:12 *1590:A 4.66108e-05
23 *35:12 *144:30 0.000245672
24 *35:12 *227:106 0.000223115
25 *35:61 *1469:B 8.23457e-05
26 *35:61 *1552:C 0.000169128
27 *35:61 *135:32 0.000356569
28 *35:61 *141:28 2.89072e-05
29 *35:61 *142:112 8.35068e-05
30 *35:61 *145:10 0.000227078
31 *35:61 *152:16 0.000640377
32 *35:61 *170:18 2.49909e-05
33 *35:61 *178:12 0.000177092
34 *35:61 *183:170 0.000118081
35 *35:61 *220:22 0.000193818
36 *35:61 *228:51 4.18096e-05
37 *35:71 *1470:B 7.9642e-06
38 *35:71 *1471:C1 0
39 *35:71 *1490:C1 0.000182075
40 *35:71 *1492:A1 7.01243e-05
41 *35:71 *1525:B 6.16226e-06
42 *35:71 *1525:C 0
43 *35:71 *1551:A 0.00201748
44 *35:71 *130:51 3.54254e-05
45 *35:71 *141:28 0.00059046
46 *35:71 *158:14 1.63586e-05
47 *35:71 *175:20 0.000164803
48 *35:71 *220:20 0
49 *35:71 *224:8 0.000301999
50 *1461:C *35:12 5.12715e-05
51 *1461:C *35:61 0
52 *1533:B *1533:C 0.000389945
*RES
1 *1461:X *35:12 9 
2 *35:12 *1530:A 22.725 
3 *35:12 *35:61 34.645 
4 *35:61 *35:71 43.03 
5 *35:71 *1464:A1 3.6 
6 *35:71 *1533:C 41.88 
*END

*D_NET *36 0.00423124
*CONN
*I *1463:B I *D sky130_fd_sc_hd__and2_4
*I *1462:X O *D sky130_fd_sc_hd__or3_1
*CAP
1 *1463:B 0.000955731
2 *1462:X 0.000955731
3 *1463:B *1397:A 0.000544676
4 *1463:B *1398:A 2.81489e-05
5 *1463:B *1411:A1 4.28483e-05
6 *1463:B *1517:B 8.40213e-05
7 *1463:B *37:10 4.45799e-05
8 *1463:B *46:8 0.000118081
9 *1463:B *130:51 8.23457e-05
10 *1463:B *134:23 0.000137262
11 *1463:B *142:16 0.00022786
12 *1463:B *142:78 8.03466e-05
13 *1463:B *186:24 0.000709417
14 *1463:B *187:24 7.64165e-05
15 *1463:B *230:54 0.000143773
*RES
1 *1462:X *1463:B 28.095 
*END

*D_NET *37 0.00829898
*CONN
*I *1533:A I *D sky130_fd_sc_hd__or3_2
*I *1464:B1 I *D sky130_fd_sc_hd__o21ai_4
*I *1463:X O *D sky130_fd_sc_hd__and2_4
*CAP
1 *1533:A 0.00127478
2 *1464:B1 4.81486e-05
3 *1463:X 0.000221609
4 *37:10 0.00154453
5 *1464:B1 *1589:A 8.64421e-05
6 *1464:B1 *38:6 0.000196048
7 *1533:A *1438:A 0.000118081
8 *1533:A *1471:C1 0.00135182
9 *1533:A *1488:A1 0
10 *1533:A *1492:B1 0.000494309
11 *1533:A *1503:C1 0
12 *1533:A *1518:B1 2.16833e-05
13 *1533:A *102:28 0.00072037
14 *1533:A *183:70 0
15 *1533:A *208:59 0
16 *37:10 *1471:C1 0.000234027
17 *37:10 *1551:A 9.14049e-05
18 *37:10 *186:24 5.83121e-06
19 *37:10 *196:95 1.88656e-05
20 *37:10 *196:122 4.9367e-05
21 *37:10 *230:54 0.000122797
22 *1463:B *37:10 4.45799e-05
23 *1464:A2 *1464:B1 0.000271074
24 *1533:C *1533:A 0.00138321
*RES
1 *1463:X *37:10 8.67 
2 *37:10 *1464:B1 6.12 
3 *37:10 *1533:A 37.515 
*END

*D_NET *38 0.012339
*CONN
*I *1589:A I *D sky130_fd_sc_hd__dlygate4sd1_1
*I *1471:A1 I *D sky130_fd_sc_hd__a311o_4
*I *1550:A1 I *D sky130_fd_sc_hd__a31o_1
*I *1464:Y O *D sky130_fd_sc_hd__o21ai_4
*CAP
1 *1589:A 0.000111813
2 *1471:A1 0.000605506
3 *1550:A1 0.00087368
4 *1464:Y 0
5 *38:6 0.00175727
6 *38:4 0.000389893
7 *1471:A1 *1471:A2 0.00120979
8 *1471:A1 *1471:A3 0.000122325
9 *1471:A1 *1488:A3 0.000122325
10 *1471:A1 *66:36 1.88656e-05
11 *1471:A1 *148:12 0.00144447
12 *1471:A1 *155:20 0.000107869
13 *1550:A1 *1471:A3 4.82919e-05
14 *1550:A1 *1483:B 0
15 *1550:A1 *1550:A2 0.00144171
16 *1550:A1 *1550:B1 0.000954158
17 *1550:A1 *42:14 0.000325945
18 *1550:A1 *130:33 0.00026963
19 *1550:A1 *136:69 0.000118341
20 *1550:A1 *180:23 6.9669e-05
21 *1589:A *1470:B 2.61042e-05
22 *1589:A *1471:C1 0
23 *1589:A *1517:A 1.07797e-05
24 *1589:A *130:33 0.00011138
25 *1589:A *130:51 7.36562e-05
26 *38:6 *130:33 0.0010621
27 *1464:A2 *1550:A1 0.000272237
28 *1464:A2 *1589:A 2.01504e-05
29 *1464:A2 *38:6 0.00048853
30 *1464:B1 *1589:A 8.64421e-05
31 *1464:B1 *38:6 0.000196048
*RES
1 *1464:Y *38:4 1.6 
2 *38:4 *38:6 10.11 
3 *38:6 *1550:A1 29.54 
4 *38:6 *1471:A1 25.76 
5 *38:4 *1589:A 8.63 
*END

*D_NET *39 0.0114939
*CONN
*I *1466:B I *D sky130_fd_sc_hd__xnor2_2
*I *1465:X O *D sky130_fd_sc_hd__o21a_1
*CAP
1 *1466:B 0.000992271
2 *1465:X 0.0014728
3 *39:22 0.00246507
4 *1466:B *1388:B 8.55971e-05
5 *1466:B *1413:A2 0.00188192
6 *1466:B *1466:A 0.000961847
7 *1466:B *1531:A 0.000439601
8 *1466:B *157:12 2.86895e-05
9 *1466:B *203:31 6.34951e-05
10 *1466:B *206:87 0.00176722
11 *39:22 *1388:A 8.33414e-05
12 *39:22 *1413:B1 1.16578e-05
13 *39:22 *1465:A1 0.00019223
14 *39:22 *1484:B 0
15 *39:22 *1507:A2 9.35189e-05
16 *39:22 *1507:B1 7.46328e-06
17 *39:22 *1513:A2 0
18 *39:22 *132:12 0.000101798
19 *39:22 *147:25 2.01259e-05
20 *39:22 *148:30 0
21 *39:22 *181:87 0
22 *39:22 *200:24 0.000196141
23 *39:22 *206:35 3.69171e-05
24 *1459:C *39:22 0.000592163
*RES
1 *1465:X *39:22 33.16 
2 *39:22 *1466:B 37.125 
*END

*D_NET *40 0.0166822
*CONN
*I *1468:B I *D sky130_fd_sc_hd__nor2_2
*I *1467:B I *D sky130_fd_sc_hd__nand2_2
*I *1466:Y O *D sky130_fd_sc_hd__xnor2_2
*CAP
1 *1468:B 0
2 *1467:B 0.000628672
3 *1466:Y 0.000657351
4 *40:33 0.00327
5 *40:14 0.00455603
6 *1467:B *1396:B1 0.000654425
7 *1467:B *1400:A 0.00167824
8 *1467:B *1417:B 0.000155497
9 *1467:B *1467:A 8.247e-05
10 *1467:B *1516:A2 0.000154965
11 *1467:B *53:32 0.000146812
12 *1467:B *70:22 0.000322437
13 *1467:B *225:74 8.44437e-05
14 *40:14 *1396:B1 0.000971915
15 *40:14 *1400:A 2.14129e-05
16 *40:14 *1424:A 0.000134366
17 *40:14 *53:8 4.66108e-05
18 *40:14 *53:32 0.000224474
19 *40:14 *128:8 0.00117986
20 *40:14 *134:33 4.66108e-05
21 *40:14 *225:84 0.000378832
22 *40:14 *230:10 7.25897e-05
23 *40:33 *1413:A3 0.000123508
24 *40:33 *1431:A2 0.000210846
25 *40:33 *1591:A 0.000412243
26 *40:33 *109:18 0.00026459
27 *40:33 *172:24 7.37907e-05
28 *40:33 *223:10 0.000129177
*RES
1 *1466:Y *40:14 25.365 
2 *40:14 *1467:B 25.08 
3 *40:14 *40:33 48.25 
4 *40:33 *1468:B 3.6 
*END

*D_NET *41 0.0151239
*CONN
*I *1471:A3 I *D sky130_fd_sc_hd__a311o_4
*I *1541:B_N I *D sky130_fd_sc_hd__or2b_2
*I *1550:A3 I *D sky130_fd_sc_hd__a31o_1
*I *1467:Y O *D sky130_fd_sc_hd__nand2_2
*CAP
1 *1471:A3 0.00137532
2 *1541:B_N 0
3 *1550:A3 0.000105241
4 *1467:Y 0.00106055
5 *41:27 0.00175055
6 *41:10 0.00154102
7 *1471:A3 *1483:B 0
8 *1471:A3 *1488:A1 0.000881266
9 *1471:A3 *1488:A2 0.000614368
10 *1471:A3 *1488:A3 7.60398e-05
11 *1471:A3 *1506:B 0
12 *1471:A3 *1512:A2 0
13 *1471:A3 *1549:B2 1.30872e-05
14 *1471:A3 *42:14 0.000169521
15 *1471:A3 *112:10 4.22861e-05
16 *1471:A3 *136:69 0.000286187
17 *1471:A3 *180:23 0.000400757
18 *1471:A3 *210:10 0
19 *1550:A3 *1550:A2 0.000301899
20 *1550:A3 *117:12 0.000128537
21 *41:10 *1417:B 8.49205e-05
22 *41:10 *1424:A 0.000248991
23 *41:10 *1535:B1 0.00295062
24 *41:10 *53:32 0.00018417
25 *41:10 *104:26 0.000103095
26 *41:10 *133:18 0.000132676
27 *41:10 *133:20 0.00103934
28 *41:10 *133:44 0.000479057
29 *41:27 *1535:B1 0.000169783
30 *41:27 *1550:B1 4.41506e-05
31 *41:27 *42:14 2.49909e-05
32 *41:27 *133:18 0.000176647
33 *41:27 *136:61 7.79931e-05
34 *41:27 *136:69 0.000115021
35 *41:27 *225:84 0.000375154
36 *1471:A1 *1471:A3 0.000122325
37 *1533:B *1471:A3 0
38 *1550:A1 *1471:A3 4.82919e-05
*RES
1 *1467:Y *41:10 39.435 
2 *41:10 *1550:A3 6.465 
3 *41:10 *41:27 10.82 
4 *41:27 *1541:B_N 1.6 
5 *41:27 *1471:A3 36.545 
*END

*D_NET *42 0.0181777
*CONN
*I *1471:B1 I *D sky130_fd_sc_hd__a311o_4
*I *1541:A I *D sky130_fd_sc_hd__or2b_2
*I *1550:B1 I *D sky130_fd_sc_hd__a31o_1
*I *1468:Y O *D sky130_fd_sc_hd__nor2_2
*CAP
1 *1471:B1 0.000549328
2 *1541:A 0
3 *1550:B1 0.000839189
4 *1468:Y 0.00155517
5 *42:14 0.00205731
6 *42:10 0.00332262
7 *1471:B1 *1399:B1 2.49909e-05
8 *1471:B1 *1488:A1 4.66108e-05
9 *1471:B1 *45:21 0.0002716
10 *1471:B1 *155:20 0.000259269
11 *1471:B1 *185:10 0.000865722
12 *1471:B1 *196:122 0.0015849
13 *1550:B1 *71:12 7.06865e-05
14 *1550:B1 *225:84 7.23602e-05
15 *42:10 *1455:A1 0.00046749
16 *42:10 *1468:A 0.00022645
17 *42:10 *137:55 1.08797e-05
18 *42:10 *179:20 0.00114654
19 *42:10 *183:28 2.11536e-05
20 *42:10 *183:53 0.000267821
21 *42:10 *185:10 0.00108807
22 *42:10 *185:25 0.00125616
23 *42:10 *196:122 9.30717e-05
24 *42:14 *130:33 0.000561548
25 *1471:A3 *42:14 0.000169521
26 *1550:A1 *1550:B1 0.000954158
27 *1550:A1 *42:14 0.000325945
28 *41:27 *1550:B1 4.41506e-05
29 *41:27 *42:14 2.49909e-05
*RES
1 *1468:Y *42:10 39.84 
2 *42:10 *42:14 17.285 
3 *42:14 *1550:B1 16.955 
4 *42:14 *1541:A 1.6 
5 *42:10 *1471:B1 23.025 
*END

*D_NET *43 0.0128612
*CONN
*I *1470:B I *D sky130_fd_sc_hd__nand2_1
*I *1469:X O *D sky130_fd_sc_hd__or2_1
*CAP
1 *1470:B 0.00205133
2 *1469:X 0.00063428
3 *43:20 0.00318302
4 *43:16 0.00176597
5 *1470:B *1471:C1 0
6 *1470:B *130:51 0
7 *1470:B *175:20 0.00165632
8 *1470:B *224:8 0.000193942
9 *43:16 *1439:A 5.83121e-06
10 *43:16 *1515:B1_N 0.000369435
11 *43:16 *50:29 0.00036756
12 *43:16 *188:61 0.000158532
13 *43:20 *62:18 0.00195449
14 *43:20 *87:12 0.000486394
15 *1589:A *1470:B 2.61042e-05
16 *35:71 *1470:B 7.9642e-06
*RES
1 *1469:X *43:16 20.485 
2 *43:16 *43:20 33.47 
3 *43:20 *1470:B 31.4825 
*END

*D_NET *44 0.0110664
*CONN
*I *1471:C1 I *D sky130_fd_sc_hd__a311o_4
*I *1551:A I *D sky130_fd_sc_hd__nand2_1
*I *1470:Y O *D sky130_fd_sc_hd__nand2_1
*CAP
1 *1471:C1 0.00120433
2 *1551:A 0.000863533
3 *1470:Y 3.69588e-05
4 *44:8 0.00210482
5 *1471:C1 *1399:B1 4.51981e-05
6 *1471:C1 *1448:B 0.00042491
7 *1471:C1 *1488:A1 0.000159048
8 *1471:C1 *1517:A 0
9 *1471:C1 *220:20 8.53113e-06
10 *1551:A *1397:A 0.000134509
11 *1551:A *1421:B 6.10955e-05
12 *1551:A *1431:A1 5.12017e-06
13 *1551:A *1482:A3 0.000725218
14 *1551:A *1552:C 0.000122184
15 *1551:A *130:51 4.5783e-05
16 *1551:A *141:10 0.000106507
17 *1551:A *141:28 0.000156538
18 *1551:A *149:73 6.80075e-05
19 *1551:A *158:14 0.000539346
20 *1551:A *186:24 0.00015385
21 *1551:A *220:20 9.14049e-05
22 *1551:A *230:54 0.000268138
23 *44:8 *224:8 4.66108e-05
24 *1470:B *1471:C1 0
25 *1533:A *1471:C1 0.00135182
26 *1589:A *1471:C1 0
27 *35:71 *1471:C1 0
28 *35:71 *1551:A 0.00201748
29 *37:10 *1471:C1 0.000234027
30 *37:10 *1551:A 9.14049e-05
*RES
1 *1470:Y *44:8 4.05 
2 *44:8 *1551:A 37.225 
3 *44:8 *1471:C1 29.295 
*END

*D_NET *45 0.0265136
*CONN
*I *1478:C I *D sky130_fd_sc_hd__nand3_1
*I *1490:A3 I *D sky130_fd_sc_hd__a311oi_4
*I *1477:A2 I *D sky130_fd_sc_hd__a21o_1
*I *1552:A I *D sky130_fd_sc_hd__and3_1
*I *1488:A3 I *D sky130_fd_sc_hd__a31o_1
*I *1471:X O *D sky130_fd_sc_hd__a311o_4
*CAP
1 *1478:C 0.000529562
2 *1490:A3 0
3 *1477:A2 0.000209432
4 *1552:A 0.000246098
5 *1488:A3 0.00022762
6 *1471:X 0
7 *45:33 0.00123964
8 *45:29 0.00149478
9 *45:23 0.00164163
10 *45:21 0.00166902
11 *45:4 0.00149524
12 *1477:A2 *1477:A1 0.000568038
13 *1477:A2 *1477:B1 8.5183e-05
14 *1477:A2 *1501:A 0
15 *1477:A2 *51:14 3.45588e-05
16 *1478:C *1462:A 4.64939e-05
17 *1478:C *1462:B 8.87273e-05
18 *1478:C *1478:A 1.63098e-05
19 *1478:C *1478:B 6.55152e-05
20 *1478:C *1548:C1 8.40213e-05
21 *1478:C *116:20 2.96426e-05
22 *1478:C *187:24 8.97054e-05
23 *1488:A3 *1399:B1 0.000307138
24 *1488:A3 *1488:A1 7.89357e-05
25 *1488:A3 *1488:A2 0.000877738
26 *1488:A3 *1488:B1 0.000951679
27 *1488:A3 *196:122 1.60203e-05
28 *1552:A *1477:A1 5.78276e-05
29 *1552:A *1501:A 3.99879e-05
30 *1552:A *72:12 5.05437e-05
31 *45:21 *66:14 0.00207029
32 *45:21 *137:131 0.000870225
33 *45:21 *151:39 4.41506e-05
34 *45:21 *155:20 0.000163304
35 *45:21 *185:10 7.28976e-05
36 *45:21 *196:122 0
37 *45:23 *1411:A1 0.00136056
38 *45:23 *1412:A 1.79536e-05
39 *45:23 *154:21 0.00137114
40 *45:29 *1412:A 0.00205984
41 *45:29 *1489:A 0.00015356
42 *45:29 *59:8 2.14129e-05
43 *45:29 *154:10 0.00020026
44 *45:29 *154:21 0.00204055
45 *45:29 *189:12 0.000304974
46 *45:33 *1469:A 0.000431179
47 *45:33 *1486:A 0.000248815
48 *45:33 *1503:B1 0.000284968
49 *45:33 *1508:A 1.05827e-05
50 *45:33 *1514:B1 0.000481387
51 *45:33 *1553:B 0.000391822
52 *45:33 *47:43 7.62569e-05
53 *45:33 *59:8 0.000529413
54 *45:33 *136:108 0
55 *45:33 *189:12 0.000596992
56 *1471:A1 *1488:A3 0.000122325
57 *1471:A3 *1488:A3 7.60398e-05
58 *1471:B1 *45:21 0.0002716
*RES
1 *1471:X *45:4 1.6 
2 *45:4 *1488:A3 13.435 
3 *45:4 *45:21 35.73 
4 *45:21 *45:23 16.425 
5 *45:23 *45:29 29.22 
6 *45:29 *45:33 26.33 
7 *45:33 *1552:A 5.5 
8 *45:33 *1477:A2 7.615 
9 *45:29 *1490:A3 3.6 
10 *45:23 *1478:C 13.5 
*END

*D_NET *46 0.00952814
*CONN
*I *1473:B I *D sky130_fd_sc_hd__xnor2_2
*I *1472:X O *D sky130_fd_sc_hd__a21o_1
*CAP
1 *1473:B 0
2 *1472:X 9.36289e-05
3 *46:12 0.00150373
4 *46:8 0.00159736
5 *46:12 *1401:B1_N 4.17952e-05
6 *46:12 *1403:B 0.00119798
7 *46:12 *1472:A1 0.000466049
8 *46:12 *1540:A2 0.000196867
9 *46:12 *1540:B1 3.48614e-05
10 *46:12 *1587:A 9.06796e-05
11 *46:12 *78:22 0.000325426
12 *46:12 *102:28 0.000172539
13 *46:12 *131:60 0.002083
14 *46:12 *136:100 0.000388358
15 *46:12 *149:73 5.47322e-05
16 *46:12 *151:22 0.000191107
17 *46:12 *166:12 0.000337179
18 *46:12 *192:30 0.000190615
19 *46:12 *194:24 0.000444144
20 *46:12 *205:53 0
21 *1463:B *46:8 0.000118081
*RES
1 *1472:X *46:8 4.74 
2 *46:8 *46:12 48.515 
3 *46:12 *1473:B 1.6 
*END

*D_NET *47 0.0195056
*CONN
*I *1475:B I *D sky130_fd_sc_hd__nand2_2
*I *1474:B I *D sky130_fd_sc_hd__or2_2
*I *1473:Y O *D sky130_fd_sc_hd__xnor2_2
*CAP
1 *1475:B 0.000301286
2 *1474:B 0.000484054
3 *1473:Y 0
4 *47:43 0.00171795
5 *47:20 0.00146662
6 *47:4 0.00239924
7 *1474:B *1393:A 0.00162488
8 *1474:B *1486:A 0.000338704
9 *1474:B *1510:B 4.35432e-05
10 *1474:B *48:16 0.00266376
11 *1474:B *227:23 0.000310394
12 *1475:B *1399:A2 0.00034434
13 *1475:B *1475:A 4.77757e-05
14 *1475:B *1548:A2 5.16479e-05
15 *1475:B *49:12 1.31227e-05
16 *1475:B *137:63 8.83758e-05
17 *47:20 *1387:A 0.000119873
18 *47:20 *1393:A 4.77757e-05
19 *47:20 *1477:A1 0.000316773
20 *47:20 *1486:A 0.00076238
21 *47:20 *1503:B1 0.000150692
22 *47:20 *48:16 0.00023387
23 *47:20 *80:14 0.000644609
24 *47:20 *196:47 6.49364e-05
25 *47:20 *213:30 3.50033e-05
26 *47:43 *1387:A 0.000183423
27 *47:43 *1412:A 0.000118302
28 *47:43 *1426:A 6.13525e-05
29 *47:43 *1486:A 0.000689426
30 *47:43 *1502:A2 0.000743815
31 *47:43 *1508:A 1.88656e-05
32 *47:43 *1514:B1 0.00052782
33 *47:43 *131:48 0.000166396
34 *47:43 *134:12 0.000407645
35 *47:43 *142:94 0
36 *47:43 *142:112 0
37 *47:43 *189:12 0.00224071
38 *45:33 *47:43 7.62569e-05
*RES
1 *1473:Y *47:4 1.6 
2 *47:4 *47:20 26.665 
3 *47:20 *1474:B 26.2 
4 *47:4 *47:43 47.845 
5 *47:43 *1475:B 7.57 
*END

*D_NET *48 0.0261379
*CONN
*I *1476:A I *D sky130_fd_sc_hd__nand2_1
*I *1487:A I *D sky130_fd_sc_hd__inv_2
*I *1474:X O *D sky130_fd_sc_hd__or2_2
*CAP
1 *1476:A 0.000467694
2 *1487:A 0.00594464
3 *1474:X 0.00236202
4 *48:16 0.00877435
5 *1476:A *1538:A1 0.000268267
6 *1476:A *1538:A3 0.000132057
7 *1476:A *1538:B1 4.27458e-05
8 *1476:A *1542:B 0.000439759
9 *1476:A *1588:A 0.000235335
10 *1476:A *49:71 0.000236499
11 *1476:A *168:36 0
12 *1487:A *1490:C1 0.000309587
13 *1487:A *1513:B1 0
14 *1487:A *1517:A 0.000106935
15 *1487:A *1521:A3 0.00283643
16 *1487:A *1552:C 0.000135979
17 *1487:A *102:28 2.868e-05
18 *1487:A *135:32 0.000342107
19 *1487:A *141:28 0.00018336
20 *1487:A *158:14 0.000162227
21 *1487:A *177:28 9.06475e-05
22 *48:16 *1542:B 1.0121e-05
23 *48:16 *168:36 1.37895e-05
24 *48:16 *177:28 2.4944e-05
25 *48:16 *227:8 5.30673e-05
26 *48:16 *227:23 3.90495e-05
27 *1474:B *48:16 0.00266376
28 *47:20 *48:16 0.00023387
*RES
1 *1474:X *48:16 33.6427 
2 *48:16 *1487:A 20.3519 
3 *48:16 *1476:A 16.1975 
*END

*D_NET *49 0.030942
*CONN
*I *1490:A1 I *D sky130_fd_sc_hd__a311oi_4
*I *1476:B I *D sky130_fd_sc_hd__nand2_1
*I *1488:A1 I *D sky130_fd_sc_hd__a31o_1
*I *1475:Y O *D sky130_fd_sc_hd__nand2_2
*CAP
1 *1490:A1 0
2 *1476:B 0
3 *1488:A1 0.00314786
4 *1475:Y 0.00100128
5 *49:71 0.00204697
6 *49:55 0.00363042
7 *49:12 0.00573258
8 *1488:A1 *1399:B1 6.47255e-05
9 *1488:A1 *1448:B 0.00179495
10 *1488:A1 *1488:A2 0.000287962
11 *1488:A1 *1488:B1 1.19928e-05
12 *1488:A1 *1503:A1 9.33221e-05
13 *1488:A1 *1503:B1 0.000405323
14 *1488:A1 *1503:C1 0.000245896
15 *1488:A1 *1504:B1 0
16 *1488:A1 *1581:A 0.000323051
17 *1488:A1 *114:12 7.51041e-05
18 *1488:A1 *130:51 0
19 *1488:A1 *150:16 0.00114675
20 *1488:A1 *183:70 6.40304e-05
21 *1488:A1 *208:59 0.000105439
22 *49:12 *1399:A2 4.22944e-05
23 *49:12 *1472:A1 0.000103412
24 *49:12 *1475:A 1.16854e-05
25 *49:12 *1548:A2 0.000377136
26 *49:12 *137:63 0.000810718
27 *49:12 *149:73 0.000104708
28 *49:55 *1403:B 6.71803e-06
29 *49:55 *1480:B 0.00128415
30 *49:55 *1503:B1 0.000270536
31 *49:55 *1514:C1 0
32 *49:55 *102:28 0.00247946
33 *49:55 *131:60 7.66792e-05
34 *49:55 *136:100 0.000126376
35 *49:55 *150:16 0.000249535
36 *49:55 *196:68 0.000135801
37 *49:55 *205:53 1.88602e-05
38 *49:71 *1403:B 6.57439e-05
39 *49:71 *1407:A1 5.98894e-05
40 *49:71 *1505:A2 0.000206551
41 *49:71 *1505:B1 4.07391e-05
42 *49:71 *1552:B 0
43 *49:71 *1553:A 0
44 *49:71 *1587:A 0
45 *49:71 *1588:A 0.000241226
46 *49:71 *62:18 0.000123899
47 *49:71 *99:14 0.000286643
48 *49:71 *100:22 0.000292059
49 *49:71 *120:8 0.000649222
50 *49:71 *135:22 1.44259e-05
51 *49:71 *170:18 0.000378102
52 *49:71 *177:28 0.000309191
53 *49:71 *178:12 0
54 *49:71 *204:46 0.000453327
55 *49:71 *205:53 0.000129778
56 *1471:A3 *1488:A1 0.000881266
57 *1471:B1 *1488:A1 4.66108e-05
58 *1471:C1 *1488:A1 0.000159048
59 *1475:B *49:12 1.31227e-05
60 *1476:A *49:71 0.000236499
61 *1488:A3 *1488:A1 7.89357e-05
62 *1533:A *1488:A1 0
*RES
1 *1475:Y *49:12 17.8775 
2 *49:12 *1488:A1 49.9168 
3 *49:12 *49:55 7.04997 
4 *49:55 *49:71 48.99 
5 *49:71 *1476:B 1.6 
6 *49:55 *1490:A1 3.6 
*END

*D_NET *50 0.0169932
*CONN
*I *1478:A I *D sky130_fd_sc_hd__nand3_1
*I *1477:B1 I *D sky130_fd_sc_hd__a21o_1
*I *1476:Y O *D sky130_fd_sc_hd__nand2_1
*CAP
1 *1478:A 0.000377558
2 *1477:B1 0.000432175
3 *1476:Y 0.00184523
4 *50:29 0.00222673
5 *50:27 0.00205786
6 *50:12 0.00248609
7 *1477:B1 *1477:A1 8.64421e-05
8 *1477:B1 *1501:A 8.55426e-06
9 *1478:A *1399:A2 1.96856e-05
10 *1478:A *1478:B 1.55369e-05
11 *1478:A *1480:B 3.86648e-06
12 *50:12 *1522:A2 0.00039747
13 *50:12 *1522:B1 0
14 *50:12 *1523:B2 6.63219e-06
15 *50:12 *1536:A1 0.0001032
16 *50:12 *1588:A 0.00218038
17 *50:12 *188:18 0
18 *50:29 *1489:A 0.00210003
19 *50:29 *1489:B 8.68483e-05
20 *50:29 *1514:A1 0
21 *50:29 *1515:B1_N 0
22 *50:29 *1536:A1 0
23 *50:29 *1583:A 0.000786646
24 *50:29 *134:150 0
25 *50:29 *182:14 0.0007731
26 *50:29 *213:32 0.00028331
27 out[2] *1478:A 0
28 out[3] *50:29 0.000106344
29 out[4] *50:29 1.88656e-05
30 out[5] *50:29 0.000106344
31 out[7] *50:12 1.52352e-05
32 *1477:A2 *1477:B1 8.5183e-05
33 *1478:C *1478:A 1.63098e-05
34 *43:16 *50:29 0.00036756
*RES
1 *1476:Y *50:12 34.325 
2 *50:12 *1477:B1 7.255 
3 *50:12 *50:27 4.175 
4 *50:27 *50:29 52.7625 
5 *50:29 *1478:A 5.60317 
*END

*D_NET *51 0.00905645
*CONN
*I *1480:A I *D sky130_fd_sc_hd__and3_1
*I *1477:X O *D sky130_fd_sc_hd__a21o_1
*CAP
1 *1480:A 6.17566e-05
2 *1477:X 0.00152662
3 *51:14 0.00158838
4 *1480:A *1400:A 5.83121e-06
5 *1480:A *1480:C 1.16578e-05
6 *51:14 *1480:C 1.5536e-05
7 *51:14 *1481:C1 0.000490268
8 *51:14 *1495:A 0.000238919
9 *51:14 *1495:B 4.82863e-05
10 *51:14 *1526:A1 0.000829696
11 *51:14 *1531:D_N 0.000431281
12 *51:14 *1586:A 0.000160521
13 *51:14 *100:22 0.00160637
14 *51:14 *133:60 0.00055147
15 *51:14 *135:22 0.00116158
16 *51:14 *136:108 0.000293712
17 *1477:A2 *51:14 3.45588e-05
*RES
1 *1477:X *51:14 49.94 
2 *51:14 *1480:A 2.665 
*END

*D_NET *52 0.022033
*CONN
*I *1480:B I *D sky130_fd_sc_hd__and3_1
*I *1478:Y O *D sky130_fd_sc_hd__nand3_1
*CAP
1 *1480:B 0.00679475
2 *1478:Y 0.00679475
3 *1480:B *1399:A2 0.000112284
4 *1480:B *1400:A 0.000294152
5 *1480:B *1404:A 4.21808e-05
6 *1480:B *1430:A 1.09082e-05
7 *1480:B *1431:A2 0
8 *1480:B *1431:B1 0.00035198
9 *1480:B *1480:C 0.000142264
10 *1480:B *1514:C1 0.000796539
11 *1480:B *1515:A1 0
12 *1480:B *1516:A2 0.00229973
13 *1480:B *1516:A3 0.000189681
14 *1480:B *1531:A 4.2145e-05
15 *1480:B *1548:A1 0
16 *1480:B *1584:A 0
17 *1480:B *53:32 0.000123494
18 *1480:B *70:22 0.000366259
19 *1480:B *104:26 0
20 *1480:B *128:8 0.00033949
21 *1480:B *130:99 0.000252237
22 *1480:B *133:44 0.000111445
23 *1480:B *142:94 5.57344e-06
24 *1480:B *143:30 0.00103305
25 *1480:B *150:16 4.3155e-05
26 *1480:B *167:34 0.000311548
27 *1480:B *190:32 0.000119893
28 *1480:B *222:45 0
29 *1480:B *225:74 0.00016751
30 *1478:A *1480:B 3.86648e-06
31 *49:55 *1480:B 0.00128415
*RES
1 *1478:Y *1480:B 30.0835 
*END

*D_NET *53 0.0347129
*CONN
*I *1516:A1 I *D sky130_fd_sc_hd__a31o_4
*I *1549:A1 I *D sky130_fd_sc_hd__a221o_1
*I *1540:A2 I *D sky130_fd_sc_hd__a31o_1
*I *1530:C_N I *D sky130_fd_sc_hd__or3b_1
*I *1552:B I *D sky130_fd_sc_hd__and3_1
*I *1491:B I *D sky130_fd_sc_hd__and2b_1
*I *1480:C I *D sky130_fd_sc_hd__and3_1
*I *1479:X O *D sky130_fd_sc_hd__and3_2
*CAP
1 *1516:A1 0.000282219
2 *1549:A1 0.000386724
3 *1540:A2 8.87895e-05
4 *1530:C_N 0.000482457
5 *1552:B 0.000372395
6 *1491:B 0.00014379
7 *1480:C 0.000170432
8 *1479:X 0.000809887
9 *53:107 0.000721038
10 *53:78 0.000907033
11 *53:76 0.00260473
12 *53:38 0.000522796
13 *53:32 0.00492532
14 *53:8 0.00311497
15 *1480:C *1400:A 0.00030082
16 *1480:C *130:99 6.17219e-05
17 *1491:B *1491:A_N 0.000436944
18 *1491:B *1505:A2 6.77476e-05
19 *1491:B *1521:B1 0.000304474
20 *1491:B *57:10 2.10152e-05
21 *1516:A1 *1418:A 0.000390581
22 *1516:A1 *87:14 0.000440657
23 *1516:A1 *133:137 0.0001846
24 *1516:A1 *162:14 0.000121036
25 *1516:A1 *225:84 8.38108e-05
26 *1516:A1 *230:10 2.85623e-05
27 *1530:C_N *196:26 0.000342784
28 *1530:C_N *226:48 3.83194e-05
29 *1540:A2 *1473:A 5.11597e-05
30 *1540:A2 *1553:A 9.13726e-05
31 *1540:A2 *1587:A 1.11338e-05
32 *1540:A2 *102:28 9.12494e-06
33 *1549:A1 *1549:A2 6.6532e-05
34 *1549:A1 *186:65 0.000170828
35 *1549:A1 *215:12 0.000122801
36 *1549:A1 *230:10 4.66108e-05
37 *1552:B *1553:A 0.000763721
38 *1552:B *1587:A 9.6227e-05
39 *53:8 *1549:C1 4.89395e-05
40 *53:8 *134:33 0.000786577
41 *53:8 *210:22 8.23457e-05
42 *53:32 *1396:B1 0.000368311
43 *53:32 *1400:A 0.00015777
44 *53:32 *1424:A 0.00118006
45 *53:32 *1447:A2 7.76471e-05
46 *53:32 *1504:B1 0.000154713
47 *53:32 *1514:C1 0
48 *53:32 *1516:A2 0.000740362
49 *53:32 *1516:A3 0.000171323
50 *53:32 *1557:A2 0.000360606
51 *53:32 *1559:A3 0.000347183
52 *53:32 *71:12 1.14559e-05
53 *53:32 *122:20 0.000548938
54 *53:32 *128:8 0.000347124
55 *53:32 *133:18 0.000435724
56 *53:32 *133:20 0.000169759
57 *53:32 *133:44 0.000100289
58 *53:32 *133:137 0.000136692
59 *53:32 *167:34 0.000870739
60 *53:32 *193:8 0.000612066
61 *53:32 *193:18 9.10613e-05
62 *53:32 *206:62 0.000151136
63 *53:32 *225:74 0.00090055
64 *53:32 *227:23 0.000157611
65 *53:32 *230:10 0.000560867
66 *53:32 *230:41 1.09082e-05
67 *53:38 *1400:A 4.24618e-05
68 *53:38 *1491:A_N 0.000270618
69 *53:38 *130:99 1.69322e-05
70 *53:76 *1387:A 0.000559412
71 *53:76 *1491:A_N 7.49327e-05
72 *53:76 *1505:A2 1.80164e-05
73 *53:76 *1521:A2 4.08277e-05
74 *53:76 *1521:B1 0.000423211
75 *53:76 *1558:A1 9.57166e-05
76 *53:76 *1560:A 6.90254e-05
77 *53:76 *114:8 0.000119246
78 *53:76 *137:16 8.92987e-05
79 *53:76 *196:26 6.90254e-05
80 *53:76 *211:24 0.000598276
81 *53:76 *226:48 0.000157282
82 *53:78 *1553:A 0.000110326
83 *53:78 *1587:A 3.44615e-05
84 *53:107 *133:137 0.000169439
85 *53:107 *230:10 0.000175716
86 *1467:B *53:32 0.000146812
87 *1480:A *1480:C 1.16578e-05
88 *1480:B *1480:C 0.000142264
89 *1480:B *53:32 0.000123494
90 *1530:A *1530:C_N 0.00112092
91 *40:14 *53:8 4.66108e-05
92 *40:14 *53:32 0.000224474
93 *41:10 *53:32 0.00018417
94 *46:12 *1540:A2 0.000196867
95 *49:71 *1552:B 0
96 *51:14 *1480:C 1.5536e-05
*RES
1 *1479:X *53:8 17.505 
2 *53:8 *53:32 44.2997 
3 *53:32 *53:38 5.135 
4 *53:38 *1480:C 7.785 
5 *53:38 *1491:B 8.67 
6 *53:32 *53:76 37.785 
7 *53:76 *53:78 1.38 
8 *53:78 *1552:B 12.63 
9 *53:78 *1530:C_N 15.09 
10 *53:76 *1540:A2 6.51 
11 *53:8 *53:107 2.145 
12 *53:107 *1549:A1 10.26 
13 *53:107 *1516:A1 12.435 
*END

*D_NET *54 0.00214047
*CONN
*I *1481:C1 I *D sky130_fd_sc_hd__a211o_1
*I *1480:X O *D sky130_fd_sc_hd__and3_1
*CAP
1 *1481:C1 0.000627195
2 *1480:X 0.000627195
3 *1481:C1 *1510:C 0
4 *1481:C1 *1531:B 1.49621e-05
5 *1481:C1 *1532:A 0
6 *1481:C1 *1538:A3 8.75672e-05
7 *1481:C1 *210:56 0.000293285
8 *51:14 *1481:C1 0.000490268
*RES
1 *1480:X *1481:C1 18.315 
*END

*D_NET *55 0.0158057
*CONN
*I *1483:B I *D sky130_fd_sc_hd__xnor2_2
*I *1507:A2 I *D sky130_fd_sc_hd__o21a_1
*I *1482:X O *D sky130_fd_sc_hd__o31a_4
*CAP
1 *1483:B 0.00141727
2 *1507:A2 0.0013505
3 *1482:X 0.00072516
4 *55:14 0.00349293
5 *1483:B *1419:B 3.13447e-05
6 *1483:B *1419:C 0
7 *1483:B *1436:A 0.000461835
8 *1483:B *1502:A1 0
9 *1483:B *1513:B1 0.000509185
10 *1483:B *1592:A 0
11 *1483:B *56:52 0
12 *1483:B *142:30 0.000662666
13 *1483:B *179:20 0.000359774
14 *1483:B *179:46 0.000998891
15 *1483:B *180:23 0
16 *1483:B *210:28 0
17 *1483:B *210:32 0
18 *1483:B *210:56 0.000556135
19 *1507:A2 *1539:A2 1.19928e-05
20 *1507:A2 *164:38 0.000535295
21 *1507:A2 *181:107 0
22 *1507:A2 *193:18 0.000171503
23 *55:14 *1502:A1 0.001433
24 *55:14 *1539:A1 3.83194e-05
25 *55:14 *1539:A2 2.33266e-05
26 *55:14 *1539:B1_N 0.000229541
27 *55:14 *1540:B1 0.00149621
28 *55:14 *95:28 0.000120655
29 *55:14 *153:12 6.59891e-05
30 *55:14 *164:38 0.00017255
31 *55:14 *193:56 0.000119756
32 *55:14 *211:56 6.72196e-05
33 *1471:A3 *1483:B 0
34 *1550:A1 *1483:B 0
35 *31:14 *1483:B 0.00066112
36 *39:22 *1507:A2 9.35189e-05
*RES
1 *1482:X *55:14 27.38 
2 *55:14 *1507:A2 25.46 
3 *55:14 *1483:B 40.64 
*END

*D_NET *56 0.022952
*CONN
*I *1485:B I *D sky130_fd_sc_hd__nor2_1
*I *1484:B I *D sky130_fd_sc_hd__and2_4
*I *1483:Y O *D sky130_fd_sc_hd__xnor2_2
*CAP
1 *1485:B 0.00324617
2 *1484:B 0.0013718
3 *1483:Y 0.00129367
4 *56:56 0.00304031
5 *56:52 0.00620835
6 *1484:B *1388:A 0
7 *1484:B *1523:B2 0.000451251
8 *1484:B *57:10 3.53421e-05
9 *1484:B *157:12 0.000210839
10 *1484:B *191:12 0.00187939
11 *1484:B *206:16 0.000908579
12 *1484:B *206:87 0.000367681
13 *1485:B *1485:A 0.000371292
14 *1485:B *1486:B 8.4299e-05
15 *1485:B *1513:B1 8.33129e-05
16 *1485:B *1515:A2 9.5953e-05
17 *1485:B *1525:A_N 0.000569149
18 *1485:B *1525:C 8.52883e-05
19 *1485:B *181:70 0.000199369
20 *1485:B *228:78 0.000122797
21 *56:52 *1483:A 1.77595e-05
22 *56:52 *1513:B1 0
23 *56:52 *71:12 0.00114978
24 *56:52 *131:70 7.18983e-05
25 *56:52 *142:30 0
26 *56:52 *179:20 4.42401e-05
27 *56:52 *209:28 0.000109198
28 *56:56 *1513:A1 4.41506e-05
29 *56:56 *1513:A3 3.51072e-05
30 *56:56 *1513:B1 0.000756388
31 *56:56 *181:70 4.79045e-05
32 *1459:C *1484:B 0
33 *1483:B *56:52 0
34 *1573:A *1484:B 5.07229e-05
35 *1574:A *1484:B 0
36 *1575:A *1484:B 0
37 *39:22 *1484:B 0
*RES
1 *1483:Y *56:52 32.87 
2 *56:52 *56:56 21.425 
3 *56:56 *1484:B 39.375 
4 *56:52 *1485:B 44.86 
*END

*D_NET *57 0.0169254
*CONN
*I *1486:A I *D sky130_fd_sc_hd__or2_4
*I *1509:A1 I *D sky130_fd_sc_hd__o21ai_2
*I *1510:A I *D sky130_fd_sc_hd__or3_4
*I *1484:X O *D sky130_fd_sc_hd__and2_4
*CAP
1 *1486:A 0.00121119
2 *1509:A1 0.000334353
3 *1510:A 2.25096e-05
4 *1484:X 0.00152515
5 *57:27 0.00275973
6 *57:10 0.00276185
7 *1486:A *1393:A 9.32216e-05
8 *1486:A *1502:A2 0.000396728
9 *1486:A *1503:B1 0.000116741
10 *1486:A *80:14 0.00190783
11 *1486:A *136:108 0.00035509
12 *1509:A1 *1393:A 2.92496e-05
13 *1509:A1 *1509:A2 0.000320859
14 *1509:A1 *1509:B1 0.000417171
15 *1509:A1 *1538:A3 7.03219e-05
16 *1510:A *1532:A 4.13092e-05
17 *1510:A *227:23 7.47284e-05
18 *57:10 *1491:A_N 7.07551e-05
19 *57:10 *1505:A2 0.000637364
20 *57:10 *1510:C 9.50449e-05
21 *57:10 *1532:A 3.86607e-05
22 *57:10 *227:23 0.000406623
23 *57:27 *1393:A 0.000206358
24 *57:27 *1510:B 0.000864374
25 *57:27 *80:14 4.82863e-05
26 *57:27 *107:12 2.42236e-05
27 *1474:B *1486:A 0.000338704
28 *1484:B *57:10 3.53421e-05
29 *1491:B *57:10 2.10152e-05
30 *45:33 *1486:A 0.000248815
31 *47:20 *1486:A 0.00076238
32 *47:43 *1486:A 0.000689426
*RES
1 *1484:X *57:10 24.18 
2 *57:10 *1510:A 4.47 
3 *57:10 *57:27 20.245 
4 *57:27 *1509:A1 12.675 
5 *57:27 *1486:A 44.92 
*END

*D_NET *58 0.00605769
*CONN
*I *1486:B I *D sky130_fd_sc_hd__or2_4
*I *1485:Y O *D sky130_fd_sc_hd__nor2_1
*CAP
1 *1486:B 0.00107144
2 *1485:Y 0.00107144
3 *1486:B *1515:A2 0.000170719
4 *1486:B *1586:A 0.000307339
5 *1486:B *183:131 0
6 *1486:B *188:16 0.000252296
7 *1486:B *188:61 0
8 *1486:B *227:108 0.00118512
9 *1486:B *228:66 0.00191504
10 *1485:B *1486:B 8.4299e-05
*RES
1 *1485:Y *1486:B 37.41 
*END

*D_NET *59 0.0102141
*CONN
*I *1489:A I *D sky130_fd_sc_hd__nand2_1
*I *1490:B1 I *D sky130_fd_sc_hd__a311oi_4
*I *1486:X O *D sky130_fd_sc_hd__or2_4
*CAP
1 *1489:A 0.00134468
2 *1490:B1 0.000259592
3 *1486:X 0.000173679
4 *59:8 0.00177795
5 *1489:A *1475:A 1.20052e-05
6 *1489:A *1583:A 0.00210003
7 *1489:A *62:18 0.000194914
8 *1489:A *136:100 0.000304474
9 *1489:A *151:22 7.1301e-06
10 *1489:A *154:10 0.000134516
11 *1489:A *227:106 0.000339003
12 *1490:B1 *1410:A3 0.000230069
13 *1490:B1 *154:10 4.82863e-05
14 *59:8 *1469:A 0.000141599
15 *59:8 *1503:B1 0.000119309
16 *59:8 *151:22 0.000222446
17 *45:29 *1489:A 0.00015356
18 *45:29 *59:8 2.14129e-05
19 *45:33 *59:8 0.000529413
20 *50:29 *1489:A 0.00210003
*RES
1 *1486:X *59:8 10.08 
2 *59:8 *1490:B1 7.86 
3 *59:8 *1489:A 47.62 
*END

*D_NET *60 0.0192312
*CONN
*I *1488:B1 I *D sky130_fd_sc_hd__a31o_1
*I *1490:C1 I *D sky130_fd_sc_hd__a311oi_4
*I *1487:Y O *D sky130_fd_sc_hd__inv_2
*CAP
1 *1488:B1 0.00203115
2 *1490:C1 0.00259659
3 *1487:Y 0
4 *60:6 0.00462774
5 *1488:B1 *1394:B 9.80943e-06
6 *1488:B1 *1488:A2 2.0514e-05
7 *1488:B1 *1492:A1 0
8 *1488:B1 *1517:A 0
9 *1488:B1 *1518:A1 0.00149073
10 *1488:B1 *1518:A2 9.05588e-05
11 *1488:B1 *1518:B1 0.00026022
12 *1488:B1 *1521:A3 0.000130173
13 *1488:B1 *61:22 0.000767251
14 *1488:B1 *78:22 0.000144427
15 *1488:B1 *149:61 0
16 *1488:B1 *149:63 0
17 *1488:B1 *196:122 8.23457e-05
18 *1488:B1 *225:103 0.000176067
19 *1490:C1 *1421:B 0
20 *1490:C1 *1426:B 8.53113e-06
21 *1490:C1 *1431:B1 0.000382543
22 *1490:C1 *1445:A1 0.000106321
23 *1490:C1 *1517:A 0
24 *1490:C1 *1521:A3 0.00122121
25 *1490:C1 *78:22 0.00162536
26 *1490:C1 *136:73 0.000103037
27 *1490:C1 *141:28 1.01674e-05
28 *1490:C1 *177:28 5.38292e-05
29 *1490:C1 *196:95 0.000191324
30 *1490:C1 *204:46 0.0001065
31 *1490:C1 *209:106 0.000184454
32 *1487:A *1490:C1 0.000309587
33 *1488:A1 *1488:B1 1.19928e-05
34 *1488:A3 *1488:B1 0.000951679
35 *1533:C *1488:B1 0.000447001
36 *1533:C *1490:C1 0.00090796
37 *35:71 *1490:C1 0.000182075
*RES
1 *1487:Y *60:6 3.6 
2 *60:6 *1490:C1 26.5179 
3 *60:6 *1488:B1 46.555 
*END

*D_NET *61 0.014433
*CONN
*I *1489:B I *D sky130_fd_sc_hd__nand2_1
*I *1488:X O *D sky130_fd_sc_hd__a31o_1
*CAP
1 *1489:B 0.00160648
2 *1488:X 0.00167234
3 *61:22 0.00327883
4 *1489:B *1454:B 0.000443774
5 *1489:B *1454:C 2.01504e-05
6 *1489:B *1548:C1 8.34281e-06
7 *1489:B *1583:A 0
8 *1489:B *182:14 0.00138494
9 *1489:B *198:12 1.74678e-05
10 *1489:B *213:32 0
11 *1489:B *224:31 0.000816105
12 *61:22 *1385:A 4.77757e-05
13 *61:22 *1404:A 0.000385407
14 *61:22 *1438:A 0.000385046
15 *61:22 *1441:B 0.000298188
16 *61:22 *1518:B1 6.20354e-05
17 *61:22 *1547:A 4.95514e-05
18 *61:22 *1547:B 4.77769e-05
19 *61:22 *1548:C1 0.00163134
20 *61:22 *129:8 0.000743617
21 *61:22 *129:36 0
22 *61:22 *186:65 4.12086e-05
23 *61:22 *196:122 6.97256e-05
24 *61:22 *209:85 5.8322e-05
25 *61:22 *209:106 0.000490445
26 out[2] *1489:B 1.17114e-05
27 *1488:B1 *61:22 0.000767251
28 *1528:B *61:22 8.33066e-06
29 *50:29 *1489:B 8.68483e-05
*RES
1 *1488:X *61:22 46.415 
2 *61:22 *1489:B 34.73 
*END

*D_NET *62 0.0117773
*CONN
*I *1505:A1 I *D sky130_fd_sc_hd__a21o_1
*I *1489:Y O *D sky130_fd_sc_hd__nand2_1
*CAP
1 *1505:A1 0
2 *1489:Y 0.00299506
3 *62:18 0.00299506
4 *62:18 *1446:A1 0.000456927
5 *62:18 *1456:B 0.00154014
6 *62:18 *1505:B1 2.21186e-05
7 *62:18 *1514:A1 0
8 *62:18 *78:22 9.35773e-05
9 *62:18 *87:12 0.000797786
10 *62:18 *99:14 6.8683e-05
11 *62:18 *134:107 0
12 *62:18 *213:32 0.000498311
13 out[5] *62:18 3.63017e-05
14 *1489:A *62:18 0.000194914
15 *43:20 *62:18 0.00195449
16 *49:71 *62:18 0.000123899
*RES
1 *1489:Y *62:18 49.0609 
2 *62:18 *1505:A1 3.6 
*END

*D_NET *63 0.0147678
*CONN
*I *1509:A2 I *D sky130_fd_sc_hd__o21ai_2
*I *1491:A_N I *D sky130_fd_sc_hd__and2b_1
*I *1510:C I *D sky130_fd_sc_hd__or3_4
*I *1490:Y O *D sky130_fd_sc_hd__a311oi_4
*CAP
1 *1509:A2 0.000669333
2 *1491:A_N 0.000501348
3 *1510:C 0.000181841
4 *1490:Y 0.000986422
5 *63:18 0.0015361
6 *63:10 0.00250867
7 *1491:A_N *1521:B1 0.000192601
8 *1491:A_N *133:44 0.000178634
9 *1491:A_N *227:23 0
10 *1509:A2 *1393:A 3.67779e-05
11 *1509:A2 *1408:B2 6.67166e-05
12 *1509:A2 *1538:A3 6.90254e-05
13 *1509:A2 *104:26 0
14 *1509:A2 *107:12 0
15 *1509:A2 *158:49 0.00031573
16 *1510:C *1393:A 5.16348e-05
17 *1510:C *1531:A 0.000150298
18 *1510:C *1531:B 0
19 *1510:C *1531:C 1.08994e-05
20 *1510:C *1532:A 0.000136182
21 *1510:C *133:44 3.09164e-05
22 *63:10 *1402:A 2.12292e-05
23 *63:10 *1408:B2 0
24 *63:10 *1410:A3 0.000438323
25 *63:10 *1417:B 0.00099787
26 *63:10 *1426:B 8.49205e-05
27 *63:10 *1455:A2 0.000330503
28 *63:10 *1521:A2 0.000952967
29 *63:10 *99:14 0.00124874
30 *63:10 *107:12 0.000170427
31 *63:10 *142:123 0
32 *63:10 *171:20 0.00016163
33 *63:10 *211:24 6.57653e-06
34 *63:18 *1408:A2 9.49473e-05
35 *63:18 *1526:A1 0.000478874
36 *63:18 *1526:B1 0.000158532
37 *63:18 *107:12 2.32724e-05
38 *63:18 *133:44 0.00034512
39 *63:18 *133:60 1.05984e-05
40 *63:18 *181:115 2.0514e-05
41 *1481:C1 *1510:C 0
42 *1491:B *1491:A_N 0.000436944
43 *1509:A1 *1509:A2 0.000320859
44 *1529:B *63:10 0.000330434
45 *53:38 *1491:A_N 0.000270618
46 *53:76 *1491:A_N 7.49327e-05
47 *57:10 *1491:A_N 7.07551e-05
48 *57:10 *1510:C 9.50449e-05
*RES
1 *1490:Y *63:10 34.4775 
2 *63:10 *63:18 19.0825 
3 *63:18 *1510:C 8.295 
4 *63:18 *1491:A_N 14.475 
5 *63:10 *1509:A2 17.9775 
*END

*D_NET *64 0.00870075
*CONN
*I *1505:A2 I *D sky130_fd_sc_hd__a21o_1
*I *1491:X O *D sky130_fd_sc_hd__and2b_1
*CAP
1 *1505:A2 0.00204536
2 *1491:X 0.00204536
3 *1505:A2 *1521:A2 4.15752e-05
4 *1505:A2 *1521:B1 0.00231662
5 *1505:A2 *99:14 0.000430056
6 *1505:A2 *100:22 8.53113e-06
7 *1505:A2 *178:12 1.15688e-05
8 *1505:A2 *196:26 0.000791752
9 *1505:A2 *226:48 3.80525e-05
10 *1491:B *1505:A2 6.77476e-05
11 *1530:A *1505:A2 4.21973e-05
12 *49:71 *1505:A2 0.000206551
13 *53:76 *1505:A2 1.80164e-05
14 *57:10 *1505:A2 0.000637364
*RES
1 *1491:X *1505:A2 46.185 
*END

*D_NET *65 0.00796948
*CONN
*I *1493:C I *D sky130_fd_sc_hd__nand3_2
*I *1494:B1 I *D sky130_fd_sc_hd__a21o_1
*I *1492:Y O *D sky130_fd_sc_hd__a21oi_1
*CAP
1 *1493:C 0.000275746
2 *1494:B1 0.00202912
3 *1492:Y 0.000322134
4 *65:12 0.002627
5 *1493:C *1493:A 6.50242e-05
6 *1493:C *66:14 4.31222e-06
7 *1494:B1 *1411:A1 8.65905e-05
8 *1494:B1 *1411:B1 3.09088e-05
9 *1494:B1 *1493:A 0.000178225
10 *1494:B1 *1493:B 0.000260812
11 *1494:B1 *66:14 3.85943e-05
12 *1494:B1 *78:22 0.000183965
13 *1494:B1 *149:48 3.30597e-05
14 *1494:B1 *149:61 0.00157767
15 *65:12 *1399:A2 0.00018305
16 *65:12 *1492:A1 2.49909e-05
17 *65:12 *1518:A1 0
18 *65:12 *1581:A 0
19 *65:12 *142:170 0
20 *65:12 *182:8 4.82863e-05
*RES
1 *1492:Y *65:12 11.255 
2 *65:12 *1494:B1 28.54 
3 *65:12 *1493:C 5.08 
*END

*D_NET *66 0.0256974
*CONN
*I *1511:B1 I *D sky130_fd_sc_hd__o21ai_1
*I *1495:A I *D sky130_fd_sc_hd__nand2_2
*I *1493:Y O *D sky130_fd_sc_hd__nand3_2
*CAP
1 *1511:B1 0
2 *1495:A 3.60443e-05
3 *1493:Y 0.00158693
4 *66:36 0.00345196
5 *66:14 0.00500284
6 *1495:A *1531:D_N 0.000237243
7 *66:14 *1411:A1 0.000994395
8 *66:14 *1428:A 0
9 *66:14 *1493:A 0.000161958
10 *66:14 *1518:A1 0
11 *66:14 *87:14 0.00216842
12 *66:14 *142:170 0
13 *66:36 *1404:A 0.00188803
14 *66:36 *1422:B 0.000351472
15 *66:36 *1431:A1 9.39045e-07
16 *66:36 *1431:B1 1.15399e-05
17 *66:36 *1471:A2 1.7635e-05
18 *66:36 *1495:B 0.00233982
19 *66:36 *1511:A1 4.66108e-05
20 *66:36 *1513:B1 8.587e-05
21 *66:36 *1526:B1 0
22 *66:36 *1544:A 0
23 *66:36 *69:14 0.001806
24 *66:36 *87:14 0.000154982
25 *66:36 *153:12 0.000175493
26 *66:36 *155:20 2.7802e-05
27 *66:36 *173:12 0.00148774
28 *66:36 *190:32 0.000173792
29 *66:36 *200:24 0.000247567
30 *66:36 *210:22 0.000131937
31 *1461:A_N *66:36 0.0002668
32 *1461:B *66:36 0.000339733
33 *1471:A1 *66:36 1.88656e-05
34 *1493:C *66:14 4.31222e-06
35 *1494:B1 *66:14 3.85943e-05
36 *1528:B *66:36 0.000132923
37 *45:21 *66:14 0.00207029
38 *51:14 *1495:A 0.000238919
*RES
1 *1493:Y *66:14 44.9 
2 *66:14 *66:36 49.6087 
3 *66:36 *1495:A 5.775 
4 *66:14 *1511:B1 1.6 
*END

*D_NET *67 0.0196635
*CONN
*I *1495:B I *D sky130_fd_sc_hd__nand2_2
*I *1494:X O *D sky130_fd_sc_hd__a21o_1
*CAP
1 *1495:B 0.00523317
2 *1494:X 0.00523317
3 *1495:B *1404:A 0.000436022
4 *1495:B *1422:B 0.000229167
5 *1495:B *1430:A 0
6 *1495:B *1431:B1 0.00145612
7 *1495:B *1441:B 0.00012354
8 *1495:B *1471:A2 1.88656e-05
9 *1495:B *1518:A2 2.97004e-06
10 *1495:B *1518:C1 0.000150616
11 *1495:B *1531:D_N 4.66108e-05
12 *1495:B *1538:C1 0.00206351
13 *1495:B *68:10 0.000721203
14 *1495:B *78:22 6.83966e-05
15 *1495:B *98:12 0.000435391
16 *1495:B *133:164 9.50342e-06
17 *1495:B *137:131 4.73737e-05
18 *1495:B *148:12 0.000145755
19 *1495:B *153:12 0.000119184
20 *1495:B *155:20 0
21 *1495:B *173:12 0
22 *1495:B *195:20 0.000116216
23 *1495:B *211:24 0.000184876
24 *1458:A1 *1495:B 0.000129951
25 *1528:B *1495:B 0.000303771
26 *51:14 *1495:B 4.82863e-05
27 *66:36 *1495:B 0.00233982
*RES
1 *1494:X *1495:B 26.6405 
*END

*D_NET *68 0.0212133
*CONN
*I *1511:A1 I *D sky130_fd_sc_hd__o21ai_1
*I *1498:A I *D sky130_fd_sc_hd__nand2_1
*I *1497:A I *D sky130_fd_sc_hd__or2_1
*I *1495:Y O *D sky130_fd_sc_hd__nand2_2
*CAP
1 *1511:A1 0.000927118
2 *1498:A 0.000299669
3 *1497:A 0.000104968
4 *1495:Y 0
5 *68:16 0.00128574
6 *68:12 0.0020021
7 *68:10 0.00172778
8 *68:6 0.00153391
9 *1497:A *1418:B 0.000177023
10 *1497:A *1519:B1 0.000175721
11 *1498:A *1418:B 0.000986423
12 *1498:A *1519:B1 0.000992147
13 *1498:A *104:26 0.000166284
14 *1511:A1 *1511:A2 0.000721588
15 *1511:A1 *69:14 7.31885e-05
16 *1511:A1 *87:14 0.000302987
17 *1511:A1 *210:10 0.000311318
18 *1511:A1 *210:22 9.43739e-05
19 *68:10 *1432:A 7.12085e-05
20 *68:10 *1542:A 0
21 *68:10 *98:12 0.00223595
22 *68:10 *145:26 7.83172e-05
23 *68:10 *153:12 1.38676e-05
24 *68:10 *173:12 0
25 *68:10 *174:22 1.88602e-05
26 *68:10 *174:24 0.000700827
27 *68:10 *195:20 0.000639665
28 *68:10 *211:24 0.000369544
29 *68:12 *1451:B 0.000325807
30 *68:16 *1419:C 0.000303873
31 *68:16 *1451:B 0.000302664
32 *68:16 *131:74 0.000956065
33 *68:16 *204:34 1.53053e-05
34 *1459:C *1497:A 3.20268e-05
35 *1461:B *68:10 0.000372521
36 *1495:B *68:10 0.000721203
37 *1528:B *68:10 0.00151866
38 *32:39 *1511:A1 0.0004682
39 *32:52 *1511:A1 0.000139778
40 *66:36 *1511:A1 4.66108e-05
*RES
1 *1495:Y *68:6 3.6 
2 *68:6 *68:10 49.79 
3 *68:10 *68:12 3.21 
4 *68:12 *68:16 16.94 
5 *68:16 *1497:A 6.54 
6 *68:16 *1498:A 15.435 
7 *68:12 *1511:A1 29.435 
*END

*D_NET *69 0.0182608
*CONN
*I *1511:A2 I *D sky130_fd_sc_hd__o21ai_1
*I *1498:B I *D sky130_fd_sc_hd__nand2_1
*I *1497:B I *D sky130_fd_sc_hd__or2_1
*I *1496:X O *D sky130_fd_sc_hd__a21o_1
*CAP
1 *1511:A2 0.00107767
2 *1498:B 0.000381196
3 *1497:B 7.97908e-05
4 *1496:X 0.00127817
5 *69:20 0.000935262
6 *69:14 0.00283011
7 *1497:B *1406:A 0.000310474
8 *1497:B *201:27 0.000308807
9 *1498:B *1406:A 2.30797e-05
10 *1498:B *1418:B 1.44259e-05
11 *1498:B *1424:B 0.000264468
12 *1498:B *1483:A 8.65961e-05
13 *1498:B *1556:B1 0
14 *1498:B *104:26 0.000214121
15 *1498:B *133:12 8.65961e-05
16 *1498:B *201:23 0.000181622
17 *1498:B *201:27 0.000353534
18 *1511:A2 *1409:D 0.000184407
19 *1511:A2 *1549:B2 0.000379197
20 *1511:A2 *87:14 0.000702358
21 *1511:A2 *112:10 6.15258e-05
22 *1511:A2 *230:41 1.79483e-05
23 *69:14 *1409:D 9.9181e-05
24 *69:14 *1413:B1 0.000128577
25 *69:14 *1422:A_N 1.23622e-05
26 *69:14 *1422:B 0.000374613
27 *69:14 *1452:B 0.000304845
28 *69:14 *1469:B 4.66108e-05
29 *69:14 *1502:A1 0.000323004
30 *69:14 *181:8 0.000369862
31 *69:14 *181:70 0.000199727
32 *69:14 *195:20 3.78419e-05
33 *69:20 *1406:B 0.0016149
34 *69:20 *1520:A2 0.000920557
35 *1458:A1 *69:14 0.000537188
36 *1461:A_N *69:14 0.000173598
37 *1461:B *69:14 0.000664887
38 *1511:A1 *1511:A2 0.000721588
39 *1511:A1 *69:14 7.31885e-05
40 *32:39 *69:14 8.08747e-05
41 *66:36 *69:14 0.001806
*RES
1 *1496:X *69:14 39.69 
2 *69:14 *69:20 19.63 
3 *69:20 *1497:B 7.275 
4 *69:20 *1498:B 14.7 
5 *69:14 *1511:A2 26.175 
*END

*D_NET *70 0.00779007
*CONN
*I *1504:A2 I *D sky130_fd_sc_hd__a31o_1
*I *1497:X O *D sky130_fd_sc_hd__or2_1
*CAP
1 *1504:A2 0
2 *1497:X 0.00151981
3 *70:22 0.00151981
4 *70:22 *1396:A2 9.04308e-05
5 *70:22 *1396:B1 1.26548e-05
6 *70:22 *1414:B 0.000135468
7 *70:22 *1418:B 0.000877093
8 *70:22 *1504:A3 4.46471e-05
9 *70:22 *1504:B1 0.000162453
10 *70:22 *1505:B1 1.91597e-05
11 *70:22 *1519:B1 0.000112595
12 *70:22 *104:26 0.000206769
13 *70:22 *122:20 0.000976232
14 *70:22 *130:89 1.08758e-05
15 *70:22 *164:23 0.000419741
16 *70:22 *225:74 0.000993626
17 *1467:B *70:22 0.000322437
18 *1480:B *70:22 0.000366259
*RES
1 *1497:X *70:22 49.215 
2 *70:22 *1504:A2 1.6 
*END

*D_NET *71 0.0118176
*CONN
*I *1504:A3 I *D sky130_fd_sc_hd__a31o_1
*I *1498:Y O *D sky130_fd_sc_hd__nand2_1
*CAP
1 *1504:A3 0.000290718
2 *1498:Y 0.000614567
3 *71:12 0.0016701
4 *71:8 0.00199395
5 *1504:A3 *1505:B1 1.06624e-05
6 *1504:A3 *130:89 3.99501e-05
7 *1504:A3 *206:62 0.000153816
8 *71:8 *1483:A 0.000229549
9 *71:8 *133:12 0.000158072
10 *71:12 *1447:A2 0.000154956
11 *71:12 *1531:C 0.00189585
12 *71:12 *1557:A2 7.36843e-05
13 *71:12 *1559:A3 0.000640097
14 *71:12 *209:16 0
15 *71:12 *209:28 0.000375821
16 *71:12 *225:74 0.00157614
17 *71:12 *225:84 0.000663048
18 *1550:B1 *71:12 7.06865e-05
19 *53:32 *71:12 1.14559e-05
20 *56:52 *71:12 0.00114978
21 *70:22 *1504:A3 4.46471e-05
*RES
1 *1498:Y *71:8 10.95 
2 *71:8 *71:12 49.79 
3 *71:12 *1504:A3 5.425 
*END

*D_NET *72 0.0135748
*CONN
*I *1502:B1 I *D sky130_fd_sc_hd__a211o_1
*I *1501:B I *D sky130_fd_sc_hd__or3b_2
*I *1499:Y O *D sky130_fd_sc_hd__nor2_1
*CAP
1 *1502:B1 0.000987604
2 *1501:B 1.45825e-05
3 *1499:Y 0.00265653
4 *72:12 0.00365871
5 *1501:B *1553:A 2.24336e-05
6 *1501:B *213:30 5.39961e-05
7 *1502:B1 *1407:B1 5.14672e-05
8 *1502:B1 *1473:A 0.000374312
9 *1502:B1 *1502:A1 3.30511e-05
10 *1502:B1 *1502:A2 0.000119242
11 *1502:B1 *1553:A 0.000320783
12 *1502:B1 *75:12 0.000191335
13 *1502:B1 *80:14 0.000415731
14 *1502:B1 *102:28 0.000139843
15 *1502:B1 *141:28 0.00072421
16 *1502:B1 *196:47 3.5907e-05
17 *1502:B1 *196:68 0.000175333
18 *1502:B1 *205:53 0.0011763
19 *1502:B1 *213:30 0.000416391
20 *72:12 *1384:A 0.000447004
21 *72:12 *1499:A 0.000111767
22 *72:12 *1499:B 1.16578e-05
23 *72:12 *1552:C 0.000216059
24 *72:12 *119:8 0.00116997
25 *1552:A *72:12 5.05437e-05
*RES
1 *1499:Y *72:12 47.985 
2 *72:12 *1501:B 4.215 
3 *72:12 *1502:B1 34.8 
*END

*D_NET *73 0.00792537
*CONN
*I *1502:A2 I *D sky130_fd_sc_hd__a211o_1
*I *1501:C_N I *D sky130_fd_sc_hd__or3b_2
*I *1500:Y O *D sky130_fd_sc_hd__nand2_1
*CAP
1 *1502:A2 0.000729432
2 *1501:C_N 0.000593783
3 *1500:Y 0.000197522
4 *73:6 0.00152074
5 *1501:C_N *1401:A1 1.1392e-05
6 *1501:C_N *1469:A 0.000397541
7 *1501:C_N *1477:A1 0.000716573
8 *1501:C_N *1500:A 2.01935e-05
9 *1501:C_N *1503:B1 0.00015166
10 *1501:C_N *1553:B 0.000739316
11 *1501:C_N *196:47 0.000419948
12 *1502:A2 *1410:A1 0.000116158
13 *1502:A2 *1410:B1 1.07797e-05
14 *1502:A2 *1412:B 1.56428e-05
15 *1502:A2 *1426:C 0.000136884
16 *1502:A2 *136:100 1.23331e-05
17 *1502:A2 *136:108 0.00042878
18 *1502:A2 *142:112 5.57054e-05
19 *1502:A2 *183:22 0.000368035
20 *73:6 *1500:A 2.31684e-05
21 *1486:A *1502:A2 0.000396728
22 *1502:B1 *1502:A2 0.000119242
23 *47:43 *1502:A2 0.000743815
*RES
1 *1500:Y *73:6 3.775 
2 *73:6 *1501:C_N 21.74 
3 *73:6 *1502:A2 26.375 
*END

*D_NET *74 0.0186554
*CONN
*I *1503:B1 I *D sky130_fd_sc_hd__o211ai_2
*I *1501:X O *D sky130_fd_sc_hd__or3b_2
*CAP
1 *1503:B1 0.00671379
2 *1501:X 0.00671379
3 *1503:B1 *1477:A1 0.000207036
4 *1503:B1 *1503:C1 0.000517522
5 *1503:B1 *1508:B 0.000156928
6 *1503:B1 *1514:C1 0.000435869
7 *1503:B1 *1523:B2 0
8 *1503:B1 *1553:B 0.000178099
9 *1503:B1 *1581:A 0.0012822
10 *1503:B1 *78:22 0
11 *1503:B1 *80:14 0.000155582
12 *1503:B1 *102:28 9.78368e-05
13 *1503:B1 *134:107 0
14 *1503:B1 *143:30 0.000175475
15 *1503:B1 *149:87 0.000220598
16 *1503:B1 *177:28 0
17 *1503:B1 *189:12 0.000112853
18 *1503:B1 *196:47 0.000164905
19 *1503:B1 *213:30 2.37037e-05
20 *1486:A *1503:B1 0.000116741
21 *1488:A1 *1503:B1 0.000405323
22 *1501:C_N *1503:B1 0.00015166
23 *45:33 *1503:B1 0.000284968
24 *47:20 *1503:B1 0.000150692
25 *49:55 *1503:B1 0.000270536
26 *59:8 *1503:B1 0.000119309
*RES
1 *1501:X *1503:B1 28.1657 
*END

*D_NET *75 0.00976683
*CONN
*I *1503:C1 I *D sky130_fd_sc_hd__o211ai_2
*I *1502:X O *D sky130_fd_sc_hd__a211o_1
*CAP
1 *1503:C1 0.0013785
2 *1502:X 0.000878583
3 *75:12 0.00225708
4 *1503:C1 *1504:B1 0.0011769
5 *1503:C1 *1560:A 0.000895381
6 *1503:C1 *114:12 0
7 *1503:C1 *168:18 0.00148905
8 *1503:C1 *183:70 4.77757e-05
9 *1503:C1 *186:24 0
10 *1503:C1 *215:16 2.20014e-05
11 *75:12 *1502:A1 6.07575e-06
12 *75:12 *1502:C1 8.82035e-05
13 *75:12 *1540:B1 7.11518e-05
14 *75:12 *193:56 0.000501362
15 *1488:A1 *1503:C1 0.000245896
16 *1502:B1 *75:12 0.000191335
17 *1503:B1 *1503:C1 0.000517522
18 *1533:A *1503:C1 0
*RES
1 *1502:X *75:12 16.245 
2 *75:12 *1503:C1 39.69 
*END

*D_NET *76 0.0146814
*CONN
*I *1504:B1 I *D sky130_fd_sc_hd__a31o_1
*I *1503:Y O *D sky130_fd_sc_hd__o211ai_2
*CAP
1 *1504:B1 0.00449896
2 *1503:Y 0.00449896
3 *1504:B1 *1513:B1 2.03757e-05
4 *1504:B1 *1516:A3 0.00289469
5 *1504:B1 *1559:A3 0.000173755
6 *1504:B1 *122:20 7.8395e-05
7 *1504:B1 *150:16 0
8 *1504:B1 *167:24 0.000131861
9 *1504:B1 *186:24 0
10 *1504:B1 *190:32 3.93107e-05
11 *1504:B1 *206:62 4.33166e-05
12 *1504:B1 *222:45 0.000442685
13 *1504:B1 *225:74 0.000365024
14 *1488:A1 *1504:B1 0
15 *1503:C1 *1504:B1 0.0011769
16 *53:32 *1504:B1 0.000154713
17 *70:22 *1504:B1 0.000162453
*RES
1 *1503:Y *1504:B1 34.8247 
*END

*D_NET *77 0.00804766
*CONN
*I *1505:B1 I *D sky130_fd_sc_hd__a21o_1
*I *1504:X O *D sky130_fd_sc_hd__a31o_1
*CAP
1 *1505:B1 0.00226509
2 *1504:X 0.00226509
3 *1505:B1 *1446:A1 4.57551e-05
4 *1505:B1 *1452:B 0.000267128
5 *1505:B1 *1514:A1 0.000284341
6 *1505:B1 *1546:B2 0.000141701
7 *1505:B1 *1557:A2 0.00118535
8 *1505:B1 *1560:A 0.000140893
9 *1505:B1 *130:89 0.000173518
10 *1505:B1 *145:26 0.000624914
11 *1505:B1 *204:46 2.19555e-05
12 *1505:B1 *206:62 8.20815e-06
13 *1461:A_N *1505:B1 0.000531046
14 *1504:A3 *1505:B1 1.06624e-05
15 *49:71 *1505:B1 4.07391e-05
16 *62:18 *1505:B1 2.21186e-05
17 *70:22 *1505:B1 1.91597e-05
*RES
1 *1504:X *1505:B1 34.7262 
*END

*D_NET *78 0.024495
*CONN
*I *1508:A I *D sky130_fd_sc_hd__xor2_2
*I *1514:B1 I *D sky130_fd_sc_hd__o221a_1
*I *1506:Y O *D sky130_fd_sc_hd__xnor2_4
*CAP
1 *1508:A 5.09331e-06
2 *1514:B1 0.000522885
3 *1506:Y 0.00705874
4 *78:22 0.00758672
5 *1514:B1 *1387:A 0.00012677
6 *1514:B1 *1514:B2 1.99109e-05
7 *78:22 *1446:A1 7.79878e-05
8 *78:22 *1448:A 0.000146855
9 *78:22 *1506:B 0
10 *78:22 *1518:A1 0.000107111
11 *78:22 *1518:C1 0
12 *78:22 *1521:A3 0
13 *78:22 *1540:B1 0.000268261
14 *78:22 *1581:A 0.00132851
15 *78:22 *102:28 0.0025315
16 *78:22 *131:60 0.000169048
17 *78:22 *149:61 0.000261942
18 *78:22 *149:67 0.000129951
19 *78:22 *155:20 0.000112713
20 *78:22 *166:12 0.000300647
21 *78:22 *177:28 0.000260604
22 *1488:B1 *78:22 0.000144427
23 *1490:C1 *78:22 0.00162536
24 *1494:B1 *78:22 0.000183965
25 *1495:B *78:22 6.83966e-05
26 *1503:B1 *78:22 0
27 *45:33 *1508:A 1.05827e-05
28 *45:33 *1514:B1 0.000481387
29 *46:12 *78:22 0.000325426
30 *47:43 *1508:A 1.88656e-05
31 *47:43 *1514:B1 0.00052782
32 *62:18 *78:22 9.35773e-05
*RES
1 *1506:Y *78:22 22.2071 
2 *78:22 *1514:B1 15.4275 
3 *78:22 *1508:A 3.8325 
*END

*D_NET *79 0.0134773
*CONN
*I *1508:B I *D sky130_fd_sc_hd__xor2_2
*I *1507:X O *D sky130_fd_sc_hd__o21a_1
*CAP
1 *1508:B 0.00241109
2 *1507:X 0.00169912
3 *79:12 0.00411021
4 *1508:B *1410:B1 4.82553e-05
5 *1508:B *1465:A2 0.0012244
6 *1508:B *136:100 2.76356e-05
7 *1508:B *143:30 0.000919589
8 *1508:B *151:22 0.00092195
9 *1508:B *186:24 0.000269916
10 *79:12 *1465:A2 0.00134017
11 *79:12 *1507:B1 0.000230002
12 *79:12 *1544:A 0.000118081
13 *1503:B1 *1508:B 0.000156928
*RES
1 *1507:X *79:12 24.265 
2 *79:12 *1508:B 40.795 
*END

*D_NET *80 0.0117792
*CONN
*I *1509:B1 I *D sky130_fd_sc_hd__o21ai_2
*I *1510:B I *D sky130_fd_sc_hd__or3_4
*I *1508:X O *D sky130_fd_sc_hd__xor2_2
*CAP
1 *1509:B1 0.000295895
2 *1510:B 0.000320684
3 *1508:X 0.00117862
4 *80:14 0.0017952
5 *1509:B1 *1516:A2 2.63999e-05
6 *1509:B1 *107:12 0.000564341
7 *1510:B *1393:A 0.00159024
8 *80:14 *1393:A 0.000804117
9 *80:14 *1407:B1 5.00404e-05
10 *80:14 *141:28 0.000129972
11 *80:14 *196:47 0.000326838
12 *80:14 *213:30 0.000199734
13 *1474:B *1510:B 4.35432e-05
14 *1486:A *80:14 0.00190783
15 *1502:B1 *80:14 0.000415731
16 *1503:B1 *80:14 0.000155582
17 *1509:A1 *1509:B1 0.000417171
18 *47:20 *80:14 0.000644609
19 *57:27 *1510:B 0.000864374
20 *57:27 *80:14 4.82863e-05
*RES
1 *1508:X *80:14 37.88 
2 *80:14 *1510:B 16.195 
3 *80:14 *1509:B1 14.12 
*END

*D_NET *81 0.0237611
*CONN
*I *1516:A2 I *D sky130_fd_sc_hd__a31o_4
*I *1509:Y O *D sky130_fd_sc_hd__o21ai_2
*CAP
1 *1516:A2 0.00477499
2 *1509:Y 0.00477499
3 *1516:A2 *1396:A2 0.000413503
4 *1516:A2 *1396:B1 0.000145987
5 *1516:A2 *1424:A 0.00010651
6 *1516:A2 *1424:C 4.52215e-05
7 *1516:A2 *1433:B1 0.000144309
8 *1516:A2 *1455:B1 0.000442409
9 *1516:A2 *1514:A1 0.00161484
10 *1516:A2 *1516:A3 0.0061407
11 *1516:A2 *1526:A1 0.00022282
12 *1516:A2 *1538:C1 0.000103822
13 *1516:A2 *1542:A 0.000573744
14 *1516:A2 *107:12 0.000458699
15 *1516:A2 *122:20 0.0002059
16 *1516:A2 *167:34 1.04079e-05
17 *1516:A2 *209:16 0.000224474
18 *1516:A2 *229:47 0
19 *1461:A_N *1516:A2 0.000136288
20 *1467:B *1516:A2 0.000154965
21 *1480:B *1516:A2 0.00229973
22 *1509:B1 *1516:A2 2.63999e-05
23 *53:32 *1516:A2 0.000740362
*RES
1 *1509:Y *1516:A2 42.3507 
*END

*D_NET *82 0.0183881
*CONN
*I *1516:A3 I *D sky130_fd_sc_hd__a31o_4
*I *1510:X O *D sky130_fd_sc_hd__or3_4
*CAP
1 *1516:A3 0.00364536
2 *1510:X 0.00364536
3 *1516:A3 *1424:C 1.13178e-05
4 *1516:A3 *1430:A 2.37183e-05
5 *1516:A3 *1531:A 7.87237e-05
6 *1516:A3 *1549:A2 0.000149429
7 *1516:A3 *109:18 0.000224474
8 *1516:A3 *130:99 3.95466e-05
9 *1516:A3 *193:8 0.000119891
10 *1516:A3 *207:25 3.6485e-05
11 *1516:A3 *208:14 0.000208883
12 *1516:A3 *219:30 0.000279671
13 *1516:A3 *225:84 0.000164905
14 *1516:A3 *227:23 0.000363976
15 *1480:B *1516:A3 0.000189681
16 *1504:B1 *1516:A3 0.00289469
17 *1516:A2 *1516:A3 0.0061407
18 *53:32 *1516:A3 0.000171323
*RES
1 *1510:X *1516:A3 27.0491 
*END

*D_NET *83 0.0132418
*CONN
*I *1515:A2 I *D sky130_fd_sc_hd__a21bo_1
*I *1511:Y O *D sky130_fd_sc_hd__o21ai_1
*CAP
1 *1515:A2 0.000872313
2 *1511:Y 0.00213125
3 *83:8 0.00300356
4 *1515:A2 *1445:B1 0.000151346
5 *1515:A2 *1515:B1_N 3.09233e-05
6 *1515:A2 *1584:A 0.0015798
7 *1515:A2 *182:14 0.00214011
8 *83:8 *87:14 0.00306577
9 *1485:B *1515:A2 9.5953e-05
10 *1486:B *1515:A2 0.000170719
*RES
1 *1511:Y *83:8 32.34 
2 *83:8 *1515:A2 33.9825 
*END

*D_NET *84 0.0195932
*CONN
*I *1513:B1 I *D sky130_fd_sc_hd__a31oi_2
*I *1512:X O *D sky130_fd_sc_hd__o21a_1
*CAP
1 *1513:B1 0.00620436
2 *1512:X 0.00620436
3 *1513:B1 *1450:A1 1.81324e-05
4 *1513:B1 *1512:A2 0.00390842
5 *1513:B1 *1512:B1 4.77807e-05
6 *1513:B1 *167:24 7.66792e-05
7 *1513:B1 *179:20 0.000171524
8 *1513:B1 *181:70 0.00150678
9 *1483:B *1513:B1 0.000509185
10 *1485:B *1513:B1 8.33129e-05
11 *1487:A *1513:B1 0
12 *1504:B1 *1513:B1 2.03757e-05
13 *56:52 *1513:B1 0
14 *56:56 *1513:B1 0.000756388
15 *66:36 *1513:B1 8.587e-05
*RES
1 *1512:X *1513:B1 41.8851 
*END

*D_NET *85 0.0184886
*CONN
*I *1514:C1 I *D sky130_fd_sc_hd__o221a_1
*I *1513:Y O *D sky130_fd_sc_hd__a31oi_2
*CAP
1 *1514:C1 0.00736966
2 *1513:Y 0.00736966
3 *1514:C1 *1514:A1 0.000183586
4 *1514:C1 *1525:A_N 8.23457e-05
5 *1514:C1 *1554:A_N 0.000267731
6 *1514:C1 *1556:B1 0.000521896
7 *1514:C1 *131:76 0.000135651
8 *1514:C1 *134:107 0.00102784
9 *1514:C1 *149:87 3.16217e-05
10 *1514:C1 *181:70 0.00026617
11 *1480:B *1514:C1 0.000796539
12 *1503:B1 *1514:C1 0.000435869
13 *49:55 *1514:C1 0
14 *53:32 *1514:C1 0
*RES
1 *1513:Y *1514:C1 30.6305 
*END

*D_NET *86 0.00474675
*CONN
*I *1515:B1_N I *D sky130_fd_sc_hd__a21bo_1
*I *1514:X O *D sky130_fd_sc_hd__o221a_1
*CAP
1 *1515:B1_N 0.00110301
2 *1514:X 0.00110301
3 *1515:B1_N *1445:B1 0.000282127
4 *1515:B1_N *1514:A2 0.000200787
5 *1515:B1_N *1585:A 0.000308177
6 *1515:B1_N *182:14 0.000400717
7 *1515:B1_N *183:131 0.000157463
8 *1515:B1_N *188:61 0.000747057
9 out[5] *1515:B1_N 4.40358e-05
10 *1515:A2 *1515:B1_N 3.09233e-05
11 *43:16 *1515:B1_N 0.000369435
12 *50:29 *1515:B1_N 0
*RES
1 *1514:X *1515:B1_N 37.935 
*END

*D_NET *87 0.0184849
*CONN
*I *1516:B1 I *D sky130_fd_sc_hd__a31o_4
*I *1515:X O *D sky130_fd_sc_hd__a21bo_1
*CAP
1 *1516:B1 3.43921e-05
2 *1515:X 0.00111979
3 *87:14 0.00258177
4 *87:12 0.00366717
5 *87:12 *1485:A 0.000382168
6 *87:12 *213:32 0.00239112
7 *87:14 *1418:A 6.81394e-05
8 *87:14 *162:14 0.000121036
9 *1511:A1 *87:14 0.000302987
10 *1511:A2 *87:14 0.000702358
11 *1516:A1 *87:14 0.000440657
12 *43:20 *87:12 0.000486394
13 *62:18 *87:12 0.000797786
14 *66:14 *87:14 0.00216842
15 *66:36 *87:14 0.000154982
16 *83:8 *87:14 0.00306577
*RES
1 *1515:X *87:12 38.525 
2 *87:12 *87:14 58.065 
3 *87:14 *1516:B1 2.215 
*END

*D_NET *88 0.0192252
*CONN
*I *1521:A3 I *D sky130_fd_sc_hd__a31o_1
*I *1517:X O *D sky130_fd_sc_hd__or2_1
*CAP
1 *1521:A3 0.00568864
2 *1517:X 0.00568864
3 *1521:A3 *1431:A1 0.000106321
4 *1521:A3 *1431:B1 0.000106321
5 *1521:A3 *1514:A1 0.000974168
6 *1521:A3 *1517:A 0.000153926
7 *1521:A3 *1552:C 0.000305288
8 *1521:A3 *99:14 0.000181922
9 *1521:A3 *146:12 0.000160673
10 *1521:A3 *155:20 4.21127e-05
11 *1521:A3 *158:49 0.00014009
12 *1521:A3 *176:24 0.00010873
13 *1521:A3 *176:28 7.27402e-06
14 *1521:A3 *177:28 0.000619802
15 *1521:A3 *178:12 0.000169048
16 *1521:A3 *211:24 0.000228653
17 *1521:A3 *226:48 0.000120966
18 *1487:A *1521:A3 0.00283643
19 *1488:B1 *1521:A3 0.000130173
20 *1490:C1 *1521:A3 0.00122121
21 *1533:C *1521:A3 0.000234753
22 *78:22 *1521:A3 0
*RES
1 *1517:X *1521:A3 24.5963 
*END

*D_NET *89 0.0118465
*CONN
*I *1519:B1 I *D sky130_fd_sc_hd__a31o_1
*I *1518:Y O *D sky130_fd_sc_hd__o211ai_2
*CAP
1 *1519:B1 0.00168049
2 *1518:Y 0.00121591
3 *89:8 0.00289639
4 *1519:B1 *1395:A1 0.000350069
5 *1519:B1 *1418:B 0.000325277
6 *1519:B1 *1424:A 0.000238213
7 *1519:B1 *1424:B 0
8 *1519:B1 *1519:A1 0.000747176
9 *1519:B1 *1519:A2 1.91597e-05
10 *1519:B1 *1519:A3 0.000597388
11 *1519:B1 *1523:A2 0
12 *1519:B1 *1535:A1 0.00018123
13 *1519:B1 *1535:B1 0.000183635
14 *1519:B1 *104:26 0.000189174
15 *1519:B1 *133:137 0
16 *1519:B1 *133:146 0
17 *1519:B1 *164:23 0.000729583
18 *89:8 *1394:B 0.00070607
19 *89:8 *208:10 0.000506266
20 *1497:A *1519:B1 0.000175721
21 *1498:A *1519:B1 0.000992147
22 *70:22 *1519:B1 0.000112595
*RES
1 *1518:Y *89:8 20.265 
2 *89:8 *1519:B1 47.595 
*END

*D_NET *90 0.00152623
*CONN
*I *1520:B1 I *D sky130_fd_sc_hd__o21ai_2
*I *1519:X O *D sky130_fd_sc_hd__a31o_1
*CAP
1 *1520:B1 0.000192455
2 *1519:X 0.000192455
3 *1520:B1 *1519:A1 8.35157e-05
4 *1520:B1 *1549:A2 0.000128214
5 *1520:B1 *91:14 0.000414035
6 *1520:B1 *162:27 3.59902e-05
7 *1520:B1 *163:14 0.000479568
*RES
1 *1519:X *1520:B1 13.71 
*END

*D_NET *91 0.0150822
*CONN
*I *1521:B1 I *D sky130_fd_sc_hd__a31o_1
*I *1520:Y O *D sky130_fd_sc_hd__o21ai_2
*CAP
1 *1521:B1 0.000520787
2 *1520:Y 0.000375394
3 *91:26 0.00162122
4 *91:14 0.00147583
5 *1521:B1 *1521:A2 0.000162311
6 *1521:B1 *211:24 0.000250088
7 *91:14 *1413:B1 0.000138473
8 *91:14 *147:25 0.000209524
9 *91:14 *162:27 0.000827146
10 *91:14 *163:14 0.000225219
11 *91:26 *1400:C 0.000104118
12 *91:26 *1417:A_N 0.000132842
13 *91:26 *1418:B 0.00148459
14 *91:26 *1430:B 0.000962295
15 *91:26 *1447:A2 0.000389374
16 *91:26 *103:12 0.000325832
17 *91:26 *104:26 0.000595437
18 *91:26 *144:30 0.000194915
19 *91:26 *201:27 0.00131677
20 *91:26 *201:33 0.000119056
21 *1491:A_N *1521:B1 0.000192601
22 *1491:B *1521:B1 0.000304474
23 *1505:A2 *1521:B1 0.00231662
24 *1520:B1 *91:14 0.000414035
25 *53:76 *1521:B1 0.000423211
*RES
1 *1520:Y *91:14 20.95 
2 *91:14 *91:26 42.72 
3 *91:26 *1521:B1 23.095 
*END

*D_NET *92 0.0334699
*CONN
*I *1523:B2 I *D sky130_fd_sc_hd__o22a_1
*I *1522:Y O *D sky130_fd_sc_hd__a21oi_2
*CAP
1 *1523:B2 0.0119784
2 *1522:Y 0.0119784
3 *1523:B2 *1413:A2 0.00037511
4 *1523:B2 *1522:B1 6.16226e-06
5 *1523:B2 *1523:B1 1.92979e-05
6 *1523:B2 *1531:A 0.00679928
7 *1523:B2 *1538:A3 0.000107002
8 *1523:B2 *1538:C1 0.0014769
9 *1523:B2 *1542:A 0.00011607
10 *1523:B2 *1542:B 0.000115347
11 *1523:B2 *1549:A2 4.00045e-05
12 *1523:B2 *177:28 0
13 *1484:B *1523:B2 0.000451251
14 *1503:B1 *1523:B2 0
15 *50:12 *1523:B2 6.63219e-06
*RES
1 *1522:Y *1523:B2 34.9958 
*END

*D_NET *93 0.0227759
*CONN
*I *1531:A I *D sky130_fd_sc_hd__or4b_1
*I *1523:X O *D sky130_fd_sc_hd__o22a_1
*CAP
1 *1531:A 0.00566261
2 *1523:X 0.00566261
3 *1531:A *1388:B 0.000450182
4 *1531:A *1430:A 0.0002026
5 *1531:A *1514:A1 0
6 *1531:A *1523:A2 7.79864e-05
7 *1531:A *1531:C 0.000150298
8 *1531:A *131:125 0.000245411
9 *1531:A *203:31 0.000757225
10 *1531:A *205:12 0.000239921
11 *1531:A *206:16 0.000244647
12 *1531:A *206:87 0.000372002
13 *1531:A *208:10 1.68629e-05
14 *1531:A *219:30 0.00118351
15 *1531:A *229:14 0
16 *1466:B *1531:A 0.000439601
17 *1480:B *1531:A 4.2145e-05
18 *1510:C *1531:A 0.000150298
19 *1516:A3 *1531:A 7.87237e-05
20 *1523:B2 *1531:A 0.00679928
21 *1570:A *1531:A 0
*RES
1 *1523:X *1531:A 32.6583 
*END

*D_NET *94 0.00646393
*CONN
*I *1525:C I *D sky130_fd_sc_hd__and3b_1
*I *1524:X O *D sky130_fd_sc_hd__a22o_1
*CAP
1 *1525:C 0.00192228
2 *1524:X 0.00192228
3 *1525:C *1437:A 9.96415e-05
4 *1525:C *1502:A1 0.00015718
5 *1525:C *1524:A2 1.72554e-05
6 *1525:C *1525:B 7.96104e-06
7 *1525:C *132:18 0.000161985
8 *1525:C *137:55 0.000381258
9 *1525:C *188:69 0.000191335
10 *1525:C *188:81 0.0004111
11 *1525:C *210:56 0.000134029
12 *1525:C *220:20 0.000583847
13 *1459:B *1525:C 0.000388501
14 *1485:B *1525:C 8.52883e-05
15 *35:71 *1525:C 0
*RES
1 *1524:X *1525:C 41.67 
*END

*D_NET *95 0.0125587
*CONN
*I *1526:B1 I *D sky130_fd_sc_hd__a31o_1
*I *1525:X O *D sky130_fd_sc_hd__and3b_1
*CAP
1 *1526:B1 0.000667215
2 *1525:X 0.00206674
3 *95:28 0.00273395
4 *1526:B1 *1422:A_N 0.000786386
5 *1526:B1 *1430:A 0.000156943
6 *1526:B1 *1452:B 0.000296452
7 *1526:B1 *1526:A1 0.000160213
8 *1526:B1 *112:10 0.000128697
9 *1526:B1 *179:46 0.00160684
10 *95:28 *1417:A_N 0.000153816
11 *95:28 *1422:A_N 0.00013521
12 *95:28 *1437:B 0.000218024
13 *95:28 *1502:A1 0.000108293
14 *95:28 *1525:A_N 0.00175577
15 *95:28 *1544:A 0.000186845
16 *95:28 *112:10 0.000393664
17 *95:28 *180:23 0.000258073
18 *95:28 *210:32 0.000444849
19 *95:28 *222:39 0
20 *1461:B *95:28 2.15594e-05
21 *55:14 *95:28 0.000120655
22 *63:18 *1526:B1 0.000158532
23 *66:36 *1526:B1 0
*RES
1 *1525:X *95:28 45.935 
2 *95:28 *1526:B1 24.825 
*END

*D_NET *96 0.000504717
*CONN
*I *1531:B I *D sky130_fd_sc_hd__or4b_1
*I *1526:X O *D sky130_fd_sc_hd__a31o_1
*CAP
1 *1531:B 0.000155541
2 *1526:X 0.000155541
3 *1531:B *1408:A2 8.52883e-05
4 *1531:B *1531:C 4.22574e-05
5 *1531:B *210:56 5.11279e-05
6 *1481:C1 *1531:B 1.49621e-05
7 *1510:C *1531:B 0
*RES
1 *1526:X *1531:B 10.14 
*END

*D_NET *97 0.0138752
*CONN
*I *1531:C I *D sky130_fd_sc_hd__or4b_1
*I *1527:Y O *D sky130_fd_sc_hd__nor2_1
*CAP
1 *1531:C 0.00146555
2 *1527:Y 0.00230037
3 *97:16 0.00376592
4 *1531:C *1447:A2 1.13144e-05
5 *1531:C *130:89 0
6 *1531:C *133:44 0.000937051
7 *1531:C *179:46 0
8 *1531:C *209:28 5.18694e-05
9 *1531:C *210:56 0
10 *97:16 *1396:A1 0.000431455
11 *97:16 *1436:A 0.000197826
12 *97:16 *1455:A1 0.000923795
13 *97:16 *1455:A2 0.000112534
14 *97:16 *131:62 0.000484305
15 *97:16 *176:24 0.000922493
16 *97:16 *180:8 4.66108e-05
17 *97:16 *209:28 0.000124848
18 *1510:C *1531:C 1.08994e-05
19 *1531:A *1531:C 0.000150298
20 *1531:B *1531:C 4.22574e-05
21 *71:12 *1531:C 0.00189585
*RES
1 *1527:Y *97:16 42.685 
2 *97:16 *1531:C 36.855 
*END

*D_NET *98 0.00837749
*CONN
*I *1529:A I *D sky130_fd_sc_hd__nor2_1
*I *1528:X O *D sky130_fd_sc_hd__and2b_1
*CAP
1 *1529:A 0
2 *1528:X 0.00156532
3 *98:12 0.00156532
4 *98:12 *1386:B 0.000240121
5 *98:12 *1441:B 0.000469116
6 *98:12 *1538:C1 6.2001e-05
7 *98:12 *1547:A 8.35068e-05
8 *98:12 *1547:B 0.000112589
9 *98:12 *129:10 1.72184e-05
10 *98:12 *130:33 7.17811e-05
11 *98:12 *145:26 0.00102215
12 *98:12 *148:12 0.000134468
13 *98:12 *150:16 4.00949e-05
14 *98:12 *175:28 0
15 *98:12 *186:65 2.60185e-06
16 *1495:B *98:12 0.000435391
17 *1528:B *98:12 0.000319861
18 *68:10 *98:12 0.00223595
*RES
1 *1528:X *98:12 48.92 
2 *98:12 *1529:A 1.6 
*END

*D_NET *99 0.0105152
*CONN
*I *1530:B I *D sky130_fd_sc_hd__or3b_1
*I *1529:Y O *D sky130_fd_sc_hd__nor2_1
*CAP
1 *1530:B 2.08101e-05
2 *1529:Y 0.00194064
3 *99:14 0.00196145
4 *99:14 *1417:B 0.000134118
5 *99:14 *100:22 0.00134764
6 *99:14 *177:28 5.11795e-05
7 *99:14 *178:12 0.00134783
8 *1505:A2 *99:14 0.000430056
9 *1521:A3 *99:14 0.000181922
10 *1530:A *99:14 0.00149548
11 *49:71 *99:14 0.000286643
12 *62:18 *99:14 6.8683e-05
13 *63:10 *99:14 0.00124874
*RES
1 *1529:Y *99:14 49.925 
2 *99:14 *1530:B 1.96 
*END

*D_NET *100 0.0092832
*CONN
*I *1531:D_N I *D sky130_fd_sc_hd__or4b_1
*I *1530:X O *D sky130_fd_sc_hd__or3b_1
*CAP
1 *1531:D_N 0.000325935
2 *1530:X 0.00149627
3 *100:22 0.0018222
4 *1531:D_N *133:60 0.000613568
5 *100:22 *133:60 0.00091889
6 *100:22 *135:22 0.000100544
7 *100:22 *178:12 3.60566e-05
8 *1495:A *1531:D_N 0.000237243
9 *1495:B *1531:D_N 4.66108e-05
10 *1505:A2 *100:22 8.53113e-06
11 *49:71 *100:22 0.000292059
12 *51:14 *1531:D_N 0.000431281
13 *51:14 *100:22 0.00160637
14 *99:14 *100:22 0.00134764
*RES
1 *1530:X *100:22 41.64 
2 *100:22 *1531:D_N 11.02 
*END

*D_NET *101 0.00236537
*CONN
*I *1532:A I *D sky130_fd_sc_hd__dlymetal6s2s_1
*I *1531:X O *D sky130_fd_sc_hd__or4b_1
*CAP
1 *1532:A 0.000732103
2 *1531:X 0.000732103
3 *1532:A *1538:A3 0
4 *1532:A *1543:B 0.000685007
5 *1532:A *219:30 0
6 *1481:C1 *1532:A 0
7 *1510:A *1532:A 4.13092e-05
8 *1510:C *1532:A 0.000136182
9 *57:10 *1532:A 3.86607e-05
*RES
1 *1531:X *1532:A 21.885 
*END

*D_NET *102 0.021544
*CONN
*I *1540:A3 I *D sky130_fd_sc_hd__a31o_1
*I *1533:X O *D sky130_fd_sc_hd__or3_2
*CAP
1 *1540:A3 0
2 *1533:X 0.00636769
3 *102:28 0.00636769
4 *102:28 *1403:B 0.000140029
5 *102:28 *1438:A 3.83194e-05
6 *102:28 *1448:B 0
7 *102:28 *1473:A 9.45147e-05
8 *102:28 *1492:B1 0.000341197
9 *102:28 *1518:B1 8.49205e-05
10 *102:28 *1581:A 0.000256743
11 *102:28 *136:100 0.000105649
12 *102:28 *141:28 0.000130138
13 *102:28 *192:30 0.000105649
14 *102:28 *196:122 0.00109866
15 *102:28 *205:53 0.00023344
16 *1487:A *102:28 2.868e-05
17 *1502:B1 *102:28 0.000139843
18 *1503:B1 *102:28 9.78368e-05
19 *1533:A *102:28 0.00072037
20 *1540:A2 *102:28 9.12494e-06
21 *46:12 *102:28 0.000172539
22 *49:55 *102:28 0.00247946
23 *78:22 *102:28 0.0025315
*RES
1 *1533:X *102:28 48.7056 
2 *102:28 *1540:A3 1.6 
*END

*D_NET *103 0.0100728
*CONN
*I *1539:A2 I *D sky130_fd_sc_hd__o21bai_1
*I *1534:Y O *D sky130_fd_sc_hd__o21ai_1
*CAP
1 *1539:A2 0.000486974
2 *1534:Y 0.00146191
3 *103:12 0.00194888
4 *1539:A2 *1539:A1 8.23457e-05
5 *1539:A2 *1540:B1 5.4155e-06
6 *1539:A2 *164:38 0.00125257
7 *1539:A2 *193:18 0.000628445
8 *1539:A2 *222:39 0.000344845
9 *103:12 *1393:A 0
10 *103:12 *1400:C 0
11 *103:12 *1430:A 0.000817226
12 *103:12 *1430:B 0
13 *103:12 *1447:A2 0.00103027
14 *103:12 *1534:A1 2.16833e-05
15 *103:12 *1534:A2 0.000156656
16 *103:12 *1534:B1 0.000531835
17 *103:12 *1556:A1 0.000221145
18 *103:12 *104:26 0.000219894
19 *103:12 *128:8 0
20 *103:12 *164:23 2.14129e-05
21 *103:12 *184:20 0.000480142
22 *103:12 *225:14 0
23 *1507:A2 *1539:A2 1.19928e-05
24 *55:14 *1539:A2 2.33266e-05
25 *91:26 *103:12 0.000325832
*RES
1 *1534:Y *103:12 41.585 
2 *103:12 *1539:A2 15.3775 
*END

*D_NET *104 0.0281044
*CONN
*I *1536:B2 I *D sky130_fd_sc_hd__o22a_1
*I *1535:Y O *D sky130_fd_sc_hd__a21oi_2
*CAP
1 *1536:B2 0.000499988
2 *1535:Y 0.00649623
3 *104:26 0.00699622
4 *1536:B2 *1433:A2 0.000132644
5 *1536:B2 *1433:B1 8.53011e-05
6 *1536:B2 *1434:C 0.000409123
7 *1536:B2 *1536:A2 0.000562751
8 *1536:B2 *1536:B1 0.00243651
9 *1536:B2 *1538:A2 0.000497405
10 *1536:B2 *1538:A3 0.000151321
11 *1536:B2 *1538:B1 0.000433336
12 *104:26 *1406:A 0.000434064
13 *104:26 *1418:B 0.000352408
14 *104:26 *1424:A 0.000120255
15 *104:26 *1430:A 0.000106321
16 *104:26 *1430:B 0.000377205
17 *104:26 *1447:A2 0.000222737
18 *104:26 *1549:A2 0.000470222
19 *104:26 *1554:A_N 0.000554918
20 *104:26 *158:49 0.000344739
21 *104:26 *164:23 0.00042311
22 *104:26 *167:34 0.000225049
23 *104:26 *174:22 0
24 *104:26 *176:28 0.000269683
25 *104:26 *177:28 0.00273549
26 *104:26 *201:23 0.000209504
27 *104:26 *201:27 0.000589881
28 *104:26 *201:33 0.000273251
29 *104:26 *219:30 0
30 *1480:B *104:26 0
31 *1498:A *104:26 0.000166284
32 *1498:B *104:26 0.000214121
33 *1509:A2 *104:26 0
34 *1519:B1 *104:26 0.000189174
35 *41:10 *104:26 0.000103095
36 *70:22 *104:26 0.000206769
37 *91:26 *104:26 0.000595437
38 *103:12 *104:26 0.000219894
*RES
1 *1535:Y *104:26 30.6084 
2 *104:26 *1536:B2 26.905 
*END

*D_NET *105 0.00389365
*CONN
*I *1538:B1 I *D sky130_fd_sc_hd__a311o_1
*I *1536:X O *D sky130_fd_sc_hd__o22a_1
*CAP
1 *1538:B1 0.00119872
2 *1536:X 0.00119872
3 *1538:B1 *1536:A2 0.000460473
4 *1538:B1 *1538:A1 7.9642e-06
5 *1538:B1 *1538:A2 0.000495084
6 *1538:B1 *1538:C1 4.04634e-05
7 *1538:B1 *178:12 1.61397e-05
8 *1476:A *1538:B1 4.27458e-05
9 *1536:B2 *1538:B1 0.000433336
*RES
1 *1536:X *1538:B1 24.465 
*END

*D_NET *106 0.0194752
*CONN
*I *1538:C1 I *D sky130_fd_sc_hd__a311o_1
*I *1537:Y O *D sky130_fd_sc_hd__nor2_1
*CAP
1 *1538:C1 0.00554808
2 *1537:Y 0.00554808
3 *1538:C1 *1386:B 6.03517e-05
4 *1538:C1 *1429:B 0.000401687
5 *1538:C1 *1431:B1 0.00146248
6 *1538:C1 *1432:A 0.00157396
7 *1538:C1 *1455:A2 0
8 *1538:C1 *1581:A 0
9 *1538:C1 *107:12 0.000102022
10 *1538:C1 *145:26 0.000359229
11 *1538:C1 *148:12 0.000102863
12 *1538:C1 *155:20 0.000389618
13 *1538:C1 *176:24 0
14 *1538:C1 *178:12 4.04634e-05
15 *1538:C1 *199:31 0.000139632
16 *1495:B *1538:C1 0.00206351
17 *1516:A2 *1538:C1 0.000103822
18 *1523:B2 *1538:C1 0.0014769
19 *1538:B1 *1538:C1 4.04634e-05
20 *98:12 *1538:C1 6.2001e-05
*RES
1 *1537:Y *1538:C1 24.4165 
*END

*D_NET *107 0.0097721
*CONN
*I *1539:B1_N I *D sky130_fd_sc_hd__o21bai_1
*I *1538:X O *D sky130_fd_sc_hd__a311o_1
*CAP
1 *1539:B1_N 0.000499022
2 *1538:X 0.00148981
3 *107:12 0.00198883
4 *1539:B1_N *193:56 0.000214955
5 *107:12 *1432:A 0.000132401
6 *107:12 *1434:B 4.77769e-05
7 *107:12 *1455:B1 0.000555791
8 *107:12 *1521:A2 0.000954634
9 *107:12 *1538:A3 0.000156774
10 *107:12 *1542:B 0.000574447
11 *107:12 *148:46 0.00069136
12 *107:12 *171:20 0.000480206
13 *107:12 *178:12 8.64421e-05
14 *107:12 *199:31 0.00032713
15 *1509:A2 *107:12 0
16 *1509:B1 *107:12 0.000564341
17 *1516:A2 *107:12 0.000458699
18 *1538:C1 *107:12 0.000102022
19 *55:14 *1539:B1_N 0.000229541
20 *57:27 *107:12 2.42236e-05
21 *63:10 *107:12 0.000170427
22 *63:18 *107:12 2.32724e-05
*RES
1 *1538:X *107:12 47.51 
2 *107:12 *1539:B1_N 7.57 
*END

*D_NET *108 0.00898837
*CONN
*I *1540:B1 I *D sky130_fd_sc_hd__a31o_1
*I *1539:Y O *D sky130_fd_sc_hd__o21bai_1
*CAP
1 *1540:B1 0.00119352
2 *1539:Y 0.00119352
3 *1540:B1 *1401:B1_N 0.000136662
4 *1540:B1 *1502:A1 0.000669796
5 *1540:B1 *1502:C1 0.000120655
6 *1540:B1 *1540:A1 2.08502e-05
7 *1540:B1 *1587:A 4.77769e-05
8 *1540:B1 *151:22 8.85746e-05
9 *1540:B1 *166:12 0.00102686
10 *1540:B1 *193:56 0.00176509
11 *1540:B1 *204:38 2.78732e-05
12 *1540:B1 *204:46 0.000821275
13 *1539:A2 *1540:B1 5.4155e-06
14 *46:12 *1540:B1 3.48614e-05
15 *55:14 *1540:B1 0.00149621
16 *75:12 *1540:B1 7.11518e-05
17 *78:22 *1540:B1 0.000268261
*RES
1 *1539:Y *1540:B1 47.4562 
*END

*D_NET *109 0.0143028
*CONN
*I *1543:A I *D sky130_fd_sc_hd__xnor2_2
*I *1541:X O *D sky130_fd_sc_hd__or2b_2
*CAP
1 *1543:A 0
2 *1541:X 0.00161209
3 *109:30 0.00195736
4 *109:18 0.00356945
5 *109:18 *1413:A3 8.24095e-05
6 *109:18 *1534:A1 1.50624e-05
7 *109:18 *1591:A 5.16418e-05
8 *109:18 *162:27 0.00018971
9 *109:18 *207:25 0.000237201
10 *109:18 *209:16 0.000741626
11 *109:18 *225:74 1.46216e-05
12 *109:18 *225:84 0.00129474
13 *109:18 *230:18 4.60061e-05
14 *109:30 *1465:A1 0.000585296
15 *109:30 *1534:A1 0.0019786
16 *109:30 *1543:B 1.16236e-05
17 *109:30 *1549:A2 0.000723125
18 *109:30 *121:10 0
19 *109:30 *177:28 0.000317817
20 *109:30 *181:115 0
21 *109:30 *207:10 0.000359546
22 *109:30 *207:25 2.5776e-05
23 *109:30 *229:14 0
24 *1516:A3 *109:18 0.000224474
25 *40:33 *109:18 0.00026459
*RES
1 *1541:X *109:18 38.4025 
2 *109:18 *109:30 49.5875 
3 *109:30 *1543:A 1.6 
*END

*D_NET *110 0.00331506
*CONN
*I *1543:B I *D sky130_fd_sc_hd__xnor2_2
*I *1542:Y O *D sky130_fd_sc_hd__nand2_1
*CAP
1 *1543:B 0.00128532
2 *1542:Y 0.00128532
3 *1543:B *1542:A 4.77757e-05
4 *1532:A *1543:B 0.000685007
5 *109:30 *1543:B 1.16236e-05
*RES
1 *1542:Y *1543:B 19.01 
*END

*D_NET *111 0.0189446
*CONN
*I *1549:A2 I *D sky130_fd_sc_hd__a221o_1
*I *1543:Y O *D sky130_fd_sc_hd__xnor2_2
*CAP
1 *1549:A2 0.00543602
2 *1543:Y 0.00543602
3 *1549:A2 *1424:A 0
4 *1549:A2 *1424:C 0.000135795
5 *1549:A2 *1499:A 0.000256445
6 *1549:A2 *1534:A1 0.000813504
7 *1549:A2 *1534:A2 0.000597628
8 *1549:A2 *1544:B 0.000291603
9 *1549:A2 *1554:A_N 0.00176518
10 *1549:A2 *1556:B1 0.000490875
11 *1549:A2 *120:10 0.000179314
12 *1549:A2 *162:14 0.000222737
13 *1549:A2 *163:14 0.000267876
14 *1549:A2 *177:28 1.17614e-05
15 *1549:A2 *186:65 2.53841e-05
16 *1549:A2 *206:35 0.000159507
17 *1549:A2 *209:10 0
18 *1549:A2 *219:30 0.000387273
19 *1549:A2 *229:47 0.000890143
20 *1516:A3 *1549:A2 0.000149429
21 *1520:B1 *1549:A2 0.000128214
22 *1523:B2 *1549:A2 4.00045e-05
23 *1549:A1 *1549:A2 6.6532e-05
24 *104:26 *1549:A2 0.000470222
25 *109:30 *1549:A2 0.000723125
*RES
1 *1543:Y *1549:A2 25.6546 
*END

*D_NET *112 0.0142169
*CONN
*I *1549:B1 I *D sky130_fd_sc_hd__a221o_1
*I *1544:X O *D sky130_fd_sc_hd__xor2_1
*CAP
1 *1549:B1 7.5222e-05
2 *1544:X 0.000185627
3 *112:10 0.00157809
4 *112:8 0.00168849
5 *1549:B1 *1549:B2 2.713e-05
6 *1549:B1 *1549:C1 0.000308597
7 *1549:B1 *186:65 2.32438e-05
8 *1549:B1 *215:12 0.000419903
9 *112:8 *1558:B1 0.000269335
10 *112:10 *1409:D 0.00083065
11 *112:10 *1422:A_N 0.000841504
12 *112:10 *1430:A 0.000709581
13 *112:10 *1437:B 0.000218024
14 *112:10 *1452:B 0.000237588
15 *112:10 *1502:A1 8.9257e-05
16 *112:10 *1544:A 0.00139851
17 *112:10 *1549:B2 0.000653102
18 *112:10 *179:46 6.08268e-05
19 *112:10 *180:23 0.00242514
20 *112:10 *195:20 4.02884e-05
21 *112:10 *222:39 0.00151059
22 *1471:A3 *112:10 4.22861e-05
23 *1511:A2 *112:10 6.15258e-05
24 *1526:B1 *112:10 0.000128697
25 *95:28 *112:10 0.000393664
*RES
1 *1544:X *112:8 6.12 
2 *112:8 *112:10 56.205 
3 *112:10 *1549:B1 7.5 
*END

*D_NET *113 0.00577449
*CONN
*I *1546:B2 I *D sky130_fd_sc_hd__o22a_1
*I *1545:Y O *D sky130_fd_sc_hd__a21oi_1
*CAP
1 *1546:B2 0.000825188
2 *1545:Y 0.000825188
3 *1546:B2 *1545:B1 7.41352e-06
4 *1546:B2 *1551:B 0.000146373
5 *1546:B2 *1560:A 0.000306867
6 *1546:B2 *1560:C 0.00113412
7 *1546:B2 *1581:A 0.000427073
8 *1546:B2 *114:8 4.89395e-05
9 *1546:B2 *114:12 0.00186385
10 *1546:B2 *137:16 4.77807e-05
11 *1505:B1 *1546:B2 0.000141701
*RES
1 *1545:Y *1546:B2 33.075 
*END

*D_NET *114 0.0149106
*CONN
*I *1548:B1 I *D sky130_fd_sc_hd__a311o_1
*I *1546:X O *D sky130_fd_sc_hd__o22a_1
*CAP
1 *1548:B1 0.00176124
2 *1546:X 5.71837e-05
3 *114:12 0.00334461
4 *114:8 0.00164054
5 *1548:B1 *1431:A2 0.00011215
6 *1548:B1 *1517:B 8.35068e-05
7 *1548:B1 *1548:A2 3.60024e-06
8 *1548:B1 *1548:A3 0.000800603
9 *1548:B1 *141:10 8.41307e-05
10 *1548:B1 *187:24 8.93946e-05
11 *1548:B1 *202:35 0.000285594
12 *1548:B1 *202:48 0.000282693
13 *114:8 *1546:B1 4.66108e-05
14 *114:8 *137:16 4.97393e-05
15 *114:8 *137:28 5.83121e-06
16 *114:8 *196:26 4.77719e-05
17 *114:12 *1503:A1 0.000972059
18 *114:12 *1546:A1 0.00121164
19 *114:12 *1560:A 5.69898e-06
20 *114:12 *1560:C 0.00027453
21 *114:12 *1581:A 0.000517726
22 *114:12 *149:87 0.000652528
23 *114:12 *176:24 0.000463718
24 *114:12 *226:48 1.03503e-05
25 *1488:A1 *114:12 7.51041e-05
26 *1503:C1 *114:12 0
27 *1546:B2 *114:8 4.89395e-05
28 *1546:B2 *114:12 0.00186385
29 *53:76 *114:8 0.000119246
*RES
1 *1546:X *114:8 5.43 
2 *114:8 *114:12 46.73 
3 *114:12 *1548:B1 28.13 
*END

*D_NET *115 0.00867492
*CONN
*I *1548:C1 I *D sky130_fd_sc_hd__a311o_1
*I *1547:Y O *D sky130_fd_sc_hd__nor2_1
*CAP
1 *1548:C1 0.00139275
2 *1547:Y 0.00139275
3 *1548:C1 *1431:A2 0.00012058
4 *1548:C1 *1444:A 2.85364e-05
5 *1548:C1 *1450:B1 2.0794e-05
6 *1548:C1 *1454:C 0.000670209
7 *1548:C1 *116:20 0.00082106
8 *1548:C1 *142:94 0.000333171
9 *1548:C1 *142:170 8.33066e-06
10 *1548:C1 *175:20 0.000314438
11 *1548:C1 *186:65 0.00148117
12 *1548:C1 *187:24 4.66108e-05
13 *1548:C1 *198:12 0.000282498
14 *1548:C1 *202:48 0
15 *1548:C1 *224:31 3.83194e-05
16 *1478:C *1548:C1 8.40213e-05
17 *1489:B *1548:C1 8.34281e-06
18 *61:22 *1548:C1 0.00163134
*RES
1 *1547:Y *1548:C1 49.17 
*END

*D_NET *116 0.0103319
*CONN
*I *1549:C1 I *D sky130_fd_sc_hd__a221o_1
*I *1548:X O *D sky130_fd_sc_hd__a311o_1
*CAP
1 *1549:C1 0.00168436
2 *1548:X 0.000577537
3 *116:20 0.00226189
4 *1549:C1 *1404:A 3.1191e-05
5 *1549:C1 *1479:B 0.000228863
6 *1549:C1 *1518:C1 0.000111293
7 *1549:C1 *1549:B2 0.000346118
8 *1549:C1 *134:29 0.00105329
9 *1549:C1 *134:33 0.000228863
10 *1549:C1 *183:70 0.000810724
11 *1549:C1 *186:65 9.09183e-05
12 *1549:C1 *215:12 0.000159194
13 *116:20 *1478:B 0.000104538
14 *116:20 *1548:A1 5.93601e-05
15 *116:20 *1548:A3 7.01359e-05
16 *116:20 *187:24 0.000239296
17 *116:20 *198:12 0.000822727
18 *116:20 *202:48 7.01123e-05
19 *1478:C *116:20 2.96426e-05
20 *1548:C1 *116:20 0.00082106
21 *1549:B1 *1549:C1 0.000308597
22 *32:52 *1549:C1 0.000173284
23 *53:8 *1549:C1 4.89395e-05
*RES
1 *1548:X *116:20 24.945 
2 *116:20 *1549:C1 41.765 
*END

*D_NET *117 0.0124722
*CONN
*I *1551:B I *D sky130_fd_sc_hd__nand2_1
*I *1550:X O *D sky130_fd_sc_hd__a31o_1
*CAP
1 *1551:B 0.00113693
2 *1550:X 0.00203412
3 *117:12 0.00317105
4 *1551:B *1545:A2 1.56428e-05
5 *1551:B *148:46 0.000442646
6 *1551:B *149:73 9.65478e-06
7 *1551:B *149:87 5.09835e-06
8 *117:12 *1404:A 0.000441396
9 *117:12 *1550:A2 4.43212e-05
10 *117:12 *1592:A 4.66108e-05
11 *117:12 *128:12 0.00059601
12 *117:12 *210:22 0.00066877
13 *117:12 *211:56 0.00166676
14 *117:12 *224:8 0.00030615
15 *1461:A_N *117:12 0.00127892
16 *1546:B2 *1551:B 0.000146373
17 *1550:A3 *117:12 0.000128537
18 *32:39 *117:12 0.000179392
19 *33:16 *1551:B 0.000153816
*RES
1 *1550:X *117:12 47.87 
2 *117:12 *1551:B 16.915 
*END

*D_NET *118 0.00842938
*CONN
*I *1552:C I *D sky130_fd_sc_hd__and3_1
*I *1551:Y O *D sky130_fd_sc_hd__nand2_1
*CAP
1 *1552:C 0.00148254
2 *1551:Y 0.00148254
3 *1552:C *1387:A 0.000120116
4 *1552:C *1408:A1 0.000212299
5 *1552:C *1435:B 0.000443616
6 *1552:C *1538:A1 0.000417363
7 *1552:C *135:22 0.000260831
8 *1552:C *135:32 0.00128589
9 *1552:C *141:28 0.000110908
10 *1552:C *146:12 0.00066437
11 *1552:C *149:73 5.23435e-05
12 *1552:C *152:16 1.14559e-05
13 *1552:C *158:14 4.0439e-05
14 *1552:C *178:12 0.000559895
15 *1487:A *1552:C 0.000135979
16 *1521:A3 *1552:C 0.000305288
17 *1530:A *1552:C 0.000336143
18 *1551:A *1552:C 0.000122184
19 *35:61 *1552:C 0.000169128
20 *72:12 *1552:C 0.000216059
*RES
1 *1551:Y *1552:C 46.5375 
*END

*D_NET *119 0.0107356
*CONN
*I *1560:A I *D sky130_fd_sc_hd__or3_1
*I *1552:X O *D sky130_fd_sc_hd__and3_1
*CAP
1 *1560:A 0.00122012
2 *1552:X 0.000585049
3 *119:8 0.00180517
4 *1560:A *1536:B1 0.000875899
5 *1560:A *1560:C 0.00164488
6 *1560:A *1581:A 0.000284983
7 *1560:A *168:18 4.02505e-05
8 *1560:A *176:28 0.0002547
9 *1560:A *186:26 0.00121159
10 *1560:A *186:28 0.000181239
11 *1560:A *196:26 4.38947e-05
12 *1503:C1 *1560:A 0.000895381
13 *1505:B1 *1560:A 0.000140893
14 *1546:B2 *1560:A 0.000306867
15 *53:76 *1560:A 6.90254e-05
16 *72:12 *119:8 0.00116997
17 *114:12 *1560:A 5.69898e-06
*RES
1 *1552:X *119:8 14.4 
2 *119:8 *1560:A 42.72 
*END

*D_NET *120 0.0231135
*CONN
*I *1554:A_N I *D sky130_fd_sc_hd__and2b_1
*I *1557:B1 I *D sky130_fd_sc_hd__o22a_1
*I *1553:Y O *D sky130_fd_sc_hd__nor2_2
*CAP
1 *1554:A_N 0.00191383
2 *1557:B1 0
3 *1553:Y 0.00202409
4 *120:10 0.00297701
5 *120:8 0.00308728
6 *1554:A_N *1406:A 0.000583157
7 *1554:A_N *1424:C 0
8 *1554:A_N *1524:A2 7.07261e-05
9 *1554:A_N *1534:A2 3.69251e-05
10 *1554:A_N *1544:B 0.000710323
11 *1554:A_N *1556:B1 0.000331888
12 *1554:A_N *131:76 0.000549342
13 *1554:A_N *162:27 0.000167313
14 *1554:A_N *163:12 4.11198e-05
15 *1554:A_N *167:34 3.22653e-05
16 *1554:A_N *202:35 0
17 *1554:A_N *206:35 0.000595554
18 *1554:A_N *207:25 0.00117643
19 *1554:A_N *229:47 0.000189046
20 *120:8 *1588:A 0.000504304
21 *120:8 *173:12 0.00188735
22 *120:8 *219:30 0.000221074
23 *120:10 *1430:B 0
24 *120:10 *1499:A 0.00137218
25 *120:10 *1534:A2 5.43112e-05
26 *120:10 *1544:B 0.000673791
27 *120:10 *144:10 0.000256335
28 *120:10 *177:28 0
29 *120:10 *201:33 1.01661e-05
30 *120:10 *206:35 0.000162332
31 *1514:C1 *1554:A_N 0.000267731
32 *1549:A2 *1554:A_N 0.00176518
33 *1549:A2 *120:10 0.000179314
34 *33:16 *1554:A_N 6.90254e-05
35 *49:71 *120:8 0.000649222
36 *104:26 *1554:A_N 0.000554918
*RES
1 *1553:Y *120:8 42.345 
2 *120:8 *120:10 26.88 
3 *120:10 *1557:B1 3.6 
4 *120:10 *1554:A_N 41.897 
*END

*D_NET *121 0.0112547
*CONN
*I *1555:B1 I *D sky130_fd_sc_hd__a31o_1
*I *1554:X O *D sky130_fd_sc_hd__and2b_1
*CAP
1 *1555:B1 0.000167384
2 *1554:X 6.09585e-05
3 *121:10 0.00178275
4 *121:8 0.00167633
5 *1555:B1 *1555:A1 5.80175e-05
6 *121:8 *230:10 4.8919e-05
7 *121:10 *1392:A 0.000146702
8 *121:10 *1418:A 0
9 *121:10 *1465:A1 0.00184195
10 *121:10 *1465:B1 4.9968e-05
11 *121:10 *1555:A1 0.0027907
12 *121:10 *136:12 0.000116629
13 *121:10 *136:16 0.000633942
14 *121:10 *148:20 5.02217e-05
15 *121:10 *148:22 3.9442e-05
16 *121:10 *148:24 9.54732e-05
17 *121:10 *193:18 0.000196943
18 *121:10 *204:27 0.00028447
19 *121:10 *207:25 0.00028976
20 *121:10 *219:30 0.000924085
21 *109:30 *121:10 0
*RES
1 *1554:X *121:8 4.395 
2 *121:8 *121:10 51.87 
3 *121:10 *1555:B1 5.7 
*END

*D_NET *122 0.0117444
*CONN
*I *1560:B I *D sky130_fd_sc_hd__or3_1
*I *1555:X O *D sky130_fd_sc_hd__a31o_1
*CAP
1 *1560:B 0.00153521
2 *1555:X 0.00189351
3 *122:20 0.00342872
4 *1560:B *1414:B 0.00208904
5 *122:20 *1396:A2 4.70261e-05
6 *122:20 *1400:C 3.72081e-05
7 *122:20 *128:8 6.90254e-05
8 *122:20 *184:20 0.000300327
9 *122:20 *193:8 0.000416333
10 *122:20 *193:18 5.01076e-05
11 *122:20 *206:62 6.84056e-05
12 *1504:B1 *122:20 7.8395e-05
13 *1516:A2 *122:20 0.0002059
14 *53:32 *122:20 0.000548938
15 *70:22 *122:20 0.000976232
*RES
1 *1555:X *122:20 45.54 
2 *122:20 *1560:B 21.37 
*END

*D_NET *123 0.00818863
*CONN
*I *1559:A3 I *D sky130_fd_sc_hd__a31o_1
*I *1556:X O *D sky130_fd_sc_hd__a21o_1
*CAP
1 *1559:A3 0.00196075
2 *1556:X 0.00196075
3 *1559:A3 *1417:A_N 0.000642759
4 *1559:A3 *1465:A2 5.54151e-05
5 *1559:A3 *1556:A1 0.000334171
6 *1559:A3 *1557:A2 8.53113e-06
7 *1559:A3 *1558:B1 8.11856e-05
8 *1559:A3 *130:89 0.0017295
9 *1559:A3 *133:44 6.33103e-05
10 *1559:A3 *158:49 0.000191232
11 *1504:B1 *1559:A3 0.000173755
12 *53:32 *1559:A3 0.000347183
13 *71:12 *1559:A3 0.000640097
*RES
1 *1556:X *1559:A3 43.89 
*END

*D_NET *124 0.0065429
*CONN
*I *1558:B1 I *D sky130_fd_sc_hd__a21oi_1
*I *1557:X O *D sky130_fd_sc_hd__o22a_1
*CAP
1 *1558:B1 0.00192223
2 *1557:X 0.00192223
3 *1558:B1 *1452:B 0.000281932
4 *1558:B1 *1544:A 2.0187e-05
5 *1558:B1 *1544:B 0.000711808
6 *1558:B1 *1557:A2 0.000212062
7 *1558:B1 *1557:B2 0.000338531
8 *1558:B1 *1558:A1 2.90938e-05
9 *1558:B1 *1559:B1 1.14192e-05
10 *1558:B1 *130:89 0.000174603
11 *1558:B1 *133:44 2.86265e-06
12 *1558:B1 *179:46 0
13 *1558:B1 *196:26 1.00332e-05
14 *1558:B1 *210:56 0.000213973
15 *1558:B1 *222:39 0.00013959
16 *1558:B1 *226:27 0.000201817
17 *1559:A3 *1558:B1 8.11856e-05
18 *112:8 *1558:B1 0.000269335
*RES
1 *1557:X *1558:B1 39.075 
*END

*D_NET *125 0.00265119
*CONN
*I *1559:B1 I *D sky130_fd_sc_hd__a31o_1
*I *1558:Y O *D sky130_fd_sc_hd__a21oi_1
*CAP
1 *1559:B1 0.000600065
2 *1558:Y 0.000600065
3 *1559:B1 *1402:A 3.27519e-05
4 *1559:B1 *1558:A1 0.000371183
5 *1559:B1 *168:36 0.000198118
6 *1559:B1 *186:26 0.000492821
7 *1559:B1 *186:28 0.000132256
8 *1559:B1 *226:27 1.90838e-05
9 *1559:B1 *227:81 0.000193425
10 *1558:B1 *1559:B1 1.14192e-05
*RES
1 *1558:Y *1559:B1 18.945 
*END

*D_NET *126 0.00462651
*CONN
*I *1560:C I *D sky130_fd_sc_hd__or3_1
*I *1559:X O *D sky130_fd_sc_hd__a31o_1
*CAP
1 *1560:C 0.000602364
2 *1559:X 0.000602364
3 *1560:C *1581:A 0.00028423
4 *1560:C *158:49 8.40269e-05
5 *1546:B2 *1560:C 0.00113412
6 *1560:A *1560:C 0.00164488
7 *114:12 *1560:C 0.00027453
*RES
1 *1559:X *1560:C 27.735 
*END

*D_NET *127 0.005236
*CONN
*I *1561:A I *D sky130_fd_sc_hd__clkbuf_1
*I *1560:X O *D sky130_fd_sc_hd__or3_1
*CAP
1 *1561:A 0.00137827
2 *1560:X 0.00137827
3 *1561:A *136:100 0.000315064
4 *1561:A *181:18 0.00121514
5 *1561:A *183:22 0.000316346
6 *1561:A *188:69 0.000632897
*RES
1 *1560:X *1561:A 29.37 
*END

*D_NET *128 0.0194021
*CONN
*I *1441:B I *D sky130_fd_sc_hd__nand2_2
*I *1386:A I *D sky130_fd_sc_hd__nor2_4
*I *1384:Y O *D sky130_fd_sc_hd__inv_2
*CAP
1 *1441:B 0.000650803
2 *1386:A 0
3 *1384:Y 0
4 *128:12 0.000977535
5 *128:8 0.00201963
6 *128:6 0.0016929
7 *1441:B *1512:A1 0.000122028
8 *1441:B *1547:B 2.25299e-05
9 *1441:B *1549:B2 0.00015639
10 *1441:B *129:36 0.000112393
11 *1441:B *130:33 0.000136884
12 *1441:B *208:44 0.000337861
13 *1441:B *224:8 0.000146679
14 *128:8 *1393:A 0.000163019
15 *128:8 *1400:A 0.00342451
16 *128:8 *1400:C 0.000101062
17 *128:8 *130:99 0
18 *128:8 *133:20 0.000463754
19 *128:8 *133:44 0.000195657
20 *128:8 *167:34 0.000161833
21 *128:8 *184:20 0
22 *128:8 *190:32 0.00105273
23 *128:8 *225:14 0.000658696
24 *128:8 *230:10 0.000189324
25 *128:8 *230:18 0.0010196
26 *128:12 *1549:B2 0.000270415
27 *128:12 *1550:A2 0.00109451
28 *128:12 *1592:A 4.66108e-05
29 *128:12 *224:8 0.000270415
30 *1480:B *128:8 0.00033949
31 *1495:B *1441:B 0.00012354
32 *1528:B *1441:B 0.000492012
33 *40:14 *128:8 0.00117986
34 *53:32 *128:8 0.000347124
35 *61:22 *1441:B 0.000298188
36 *98:12 *1441:B 0.000469116
37 *103:12 *128:8 0
38 *117:12 *128:12 0.00059601
39 *122:20 *128:8 6.90254e-05
*RES
1 *1384:Y *128:6 3.6 
2 *128:6 *128:8 58.5 
3 *128:8 *128:12 14.87 
4 *128:12 *1386:A 1.6 
5 *128:12 *1441:B 23.54 
*END

*D_NET *129 0.00761697
*CONN
*I *1438:B I *D sky130_fd_sc_hd__or2_1
*I *1518:B1 I *D sky130_fd_sc_hd__o211ai_2
*I *1479:B I *D sky130_fd_sc_hd__and3_2
*I *1386:B I *D sky130_fd_sc_hd__nor2_4
*I *1385:X O *D sky130_fd_sc_hd__or2_2
*CAP
1 *1438:B 0
2 *1518:B1 0.000326642
3 *1479:B 0.000152867
4 *1386:B 0.000204499
5 *1385:X 0.000190185
6 *129:36 0.000711317
7 *129:10 0.000420164
8 *129:8 0.000637658
9 *1386:B *1550:A2 6.86863e-05
10 *1386:B *148:12 0.000500901
11 *1386:B *224:8 0.000122699
12 *1518:B1 *1394:B 8.65905e-05
13 *1518:B1 *1404:A 0
14 *1518:B1 *1438:A 4.66108e-05
15 *1518:B1 *1518:A2 1.82476e-05
16 *1518:B1 *1518:C1 0
17 *1518:B1 *148:12 5.26479e-05
18 *1518:B1 *196:122 6.97256e-05
19 *129:8 *1547:A 0.000262813
20 *129:8 *209:85 0.00048731
21 *129:10 *1547:B 0.000131525
22 *129:10 *148:12 0.000171988
23 *129:36 *1438:A 0.000182282
24 *129:36 *1547:B 2.02316e-05
25 *129:36 *148:12 0.000919953
26 *1441:B *129:36 0.000112393
27 *1488:B1 *1518:B1 0.00026022
28 *1533:A *1518:B1 2.16833e-05
29 *1538:C1 *1386:B 6.03517e-05
30 *1549:C1 *1479:B 0.000228863
31 *61:22 *1518:B1 6.20354e-05
32 *61:22 *129:8 0.000743617
33 *61:22 *129:36 0
34 *98:12 *1386:B 0.000240121
35 *98:12 *129:10 1.72184e-05
36 *102:28 *1518:B1 8.49205e-05
*RES
1 *1385:X *129:8 10.95 
2 *129:8 *129:10 2.145 
3 *129:10 *1386:B 10.71 
4 *129:10 *1479:B 6.135 
5 *129:8 *129:36 13.07 
6 *129:36 *1518:B1 12.905 
7 *129:36 *1438:B 1.6 
*END

*D_NET *130 0.0378444
*CONN
*I *1517:A I *D sky130_fd_sc_hd__or2_1
*I *1515:A1 I *D sky130_fd_sc_hd__a21bo_1
*I *1525:B I *D sky130_fd_sc_hd__and3b_1
*I *1559:A2 I *D sky130_fd_sc_hd__a31o_1
*I *1504:A1 I *D sky130_fd_sc_hd__a31o_1
*I *1481:A1 I *D sky130_fd_sc_hd__a211o_1
*I *1534:B1 I *D sky130_fd_sc_hd__o21ai_1
*I *1549:B2 I *D sky130_fd_sc_hd__a221o_1
*I *1386:Y O *D sky130_fd_sc_hd__nor2_4
*CAP
1 *1517:A 0.00114951
2 *1515:A1 0.00190722
3 *1525:B 1.23825e-05
4 *1559:A2 0
5 *1504:A1 0
6 *1481:A1 0.000307079
7 *1534:B1 0.000295828
8 *1549:B2 0.000440111
9 *1386:Y 0
10 *130:131 0.00207621
11 *130:99 0.00133869
12 *130:89 0.00194654
13 *130:67 0.0039978
14 *130:51 0.00475773
15 *130:33 0.00366707
16 *130:4 0.0011436
17 *1481:A1 *1481:B1 0.000318017
18 *1515:A1 *1431:A1 0
19 *1515:A1 *1431:B1 0.000116957
20 *1515:A1 *1445:B1 9.58678e-06
21 *1515:A1 *136:100 2.8041e-05
22 *1515:A1 *143:30 4.57523e-06
23 *1515:A1 *167:24 0
24 *1515:A1 *227:108 6.16226e-06
25 *1517:A *1431:A1 0.000159964
26 *1517:A *1448:B 9.20336e-05
27 *1517:A *209:106 0.00019789
28 *1534:B1 *1481:B1 0.000539064
29 *1534:B1 *1534:A1 8.23457e-05
30 *1549:B2 *1550:A2 0.000449994
31 *1549:B2 *186:65 0.000222405
32 *1549:B2 *224:8 2.20014e-05
33 *130:51 *1397:A 8.53113e-06
34 *130:51 *1423:B 0.000393342
35 *130:51 *1431:A1 0.00109232
36 *130:51 *1431:B1 0.000296581
37 *130:51 *222:45 0.000431792
38 *130:67 *1446:A1 0
39 *130:67 *1559:A1 1.56428e-05
40 *130:67 *137:43 0.000156928
41 *130:67 *158:49 5.86132e-05
42 *130:67 *186:24 0.000113124
43 *130:89 *1557:A2 0.000340778
44 *130:89 *133:44 6.34524e-05
45 *130:89 *158:49 2.05056e-05
46 *130:89 *184:20 8.23457e-05
47 *130:89 *206:62 0.000396358
48 *130:89 *210:56 0.000323347
49 *130:99 *1400:A 0
50 *130:99 *219:30 0.000621658
51 *130:99 *225:74 0.000176898
52 *130:99 *227:23 0.000256641
53 *130:131 *1431:B1 4.50986e-05
54 *1441:B *1549:B2 0.00015639
55 *1441:B *130:33 0.000136884
56 *1461:C *130:67 2.19024e-05
57 *1463:B *130:51 8.23457e-05
58 *1464:A2 *130:33 2.72392e-05
59 *1470:B *130:51 0
60 *1471:A3 *1549:B2 1.30872e-05
61 *1471:C1 *1517:A 0
62 *1480:B *1515:A1 0
63 *1480:B *130:99 0.000252237
64 *1480:C *130:99 6.17219e-05
65 *1487:A *1517:A 0.000106935
66 *1488:A1 *130:51 0
67 *1488:B1 *1517:A 0
68 *1490:C1 *1517:A 0
69 *1504:A3 *130:89 3.99501e-05
70 *1505:B1 *130:89 0.000173518
71 *1511:A2 *1549:B2 0.000379197
72 *1516:A3 *130:99 3.95466e-05
73 *1521:A3 *1517:A 0.000153926
74 *1525:C *1525:B 7.96104e-06
75 *1531:C *130:89 0
76 *1549:B1 *1549:B2 2.713e-05
77 *1549:C1 *1549:B2 0.000346118
78 *1550:A1 *130:33 0.00026963
79 *1551:A *130:51 4.5783e-05
80 *1558:B1 *130:89 0.000174603
81 *1559:A3 *130:89 0.0017295
82 *1589:A *1517:A 1.07797e-05
83 *1589:A *130:33 0.00011138
84 *1589:A *130:51 7.36562e-05
85 *35:71 *1525:B 6.16226e-06
86 *35:71 *130:51 3.54254e-05
87 *38:6 *130:33 0.0010621
88 *42:14 *130:33 0.000561548
89 *53:38 *130:99 1.69322e-05
90 *70:22 *130:89 1.08758e-05
91 *98:12 *130:33 7.17811e-05
92 *103:12 *1534:B1 0.000531835
93 *112:10 *1549:B2 0.000653102
94 *128:8 *130:99 0
95 *128:12 *1549:B2 0.000270415
*RES
1 *1386:Y *130:4 1.6 
2 *130:4 *1549:B2 22.1338 
3 *130:4 *130:33 21.885 
4 *130:33 *130:51 21.1756 
5 *130:51 *130:67 10.4035 
6 *130:67 *130:89 34.895 
7 *130:89 *130:99 20.725 
8 *130:99 *1534:B1 10.675 
9 *130:99 *1481:A1 7.69 
10 *130:89 *1504:A1 1.6 
11 *130:67 *1559:A2 1.6 
12 *130:51 *130:131 0.741933 
13 *130:131 *1525:B 4.3325 
14 *130:131 *1515:A1 7.7373 
15 *130:33 *1517:A 23.55 
*END

*D_NET *131 0.0458203
*CONN
*I *1426:A I *D sky130_fd_sc_hd__and3_2
*I *1527:A I *D sky130_fd_sc_hd__nor2_1
*I *1458:B1 I *D sky130_fd_sc_hd__o21a_2
*I *1419:C I *D sky130_fd_sc_hd__and4_2
*I *1523:A1 I *D sky130_fd_sc_hd__o22a_1
*I *1459:A I *D sky130_fd_sc_hd__or3_4
*I *1388:A I *D sky130_fd_sc_hd__nand2_2
*I *1524:A2 I *D sky130_fd_sc_hd__a22o_1
*I *1526:A1 I *D sky130_fd_sc_hd__a31o_1
*I *1522:A1 I *D sky130_fd_sc_hd__a21oi_2
*I *1387:X O *D sky130_fd_sc_hd__buf_4
*CAP
1 *1426:A 0.000189059
2 *1527:A 1.83739e-05
3 *1458:B1 0
4 *1419:C 0.000603394
5 *1523:A1 0
6 *1459:A 0
7 *1388:A 0.000108528
8 *1524:A2 0.000406714
9 *1526:A1 0.00225632
10 *1522:A1 0.000724447
11 *1387:X 0
12 *131:125 0.00230265
13 *131:95 0.00037167
14 *131:76 0.00113382
15 *131:74 0.0031086
16 *131:70 0.00108447
17 *131:62 0.00118432
18 *131:60 0.0024481
19 *131:48 0.00244463
20 *131:8 0.00330033
21 *131:6 0.00119064
22 *1419:C *1419:A 6.61657e-05
23 *1419:C *1457:A1 0.000133217
24 *1419:C *1457:B1 0.000161467
25 *1419:C *1592:A 1.92638e-05
26 *1419:C *201:71 2.5195e-05
27 *1419:C *204:27 0.00021913
28 *1419:C *204:34 8.64421e-05
29 *1419:C *223:10 0.000256309
30 *1426:A *1410:A2 7.10578e-05
31 *1426:A *1410:A3 2.49909e-05
32 *1426:A *1426:B 6.07575e-06
33 *1426:A *1426:C 3.2669e-05
34 *1426:A *189:12 5.47418e-05
35 *1522:A1 *1522:B1 8.64488e-05
36 *1522:A1 *1586:A 0.000297708
37 *1522:A1 *136:108 0
38 *1522:A1 *188:18 0
39 *1524:A2 *1406:A 6.93701e-05
40 *1524:A2 *1524:A1 8.35118e-05
41 *1524:A2 *1524:B1 1.89912e-05
42 *1524:A2 *1524:B2 1.91597e-05
43 *1524:A2 *148:30 0.000145865
44 *1526:A1 *1408:A2 0.000432506
45 *1526:A1 *1542:A 0.00022448
46 *1526:A1 *133:60 0.000234354
47 *1526:A1 *135:22 0.00131134
48 *1527:A *183:22 5.19006e-06
49 *131:8 *1586:A 0.000293013
50 *131:8 *134:107 0
51 *131:8 *188:18 0
52 *131:48 *1426:C 0.000119762
53 *131:48 *1444:A 0.000141599
54 *131:48 *1500:B 0
55 *131:48 *1586:A 0.0003672
56 *131:48 *134:107 0
57 *131:48 *170:18 0.000120182
58 *131:48 *189:12 0.000168063
59 *131:48 *227:106 0.000106582
60 *131:48 *228:66 0
61 *131:60 *141:28 0.000145179
62 *131:60 *149:73 0.000290857
63 *131:60 *166:12 0.00154905
64 *131:60 *183:22 0.000244516
65 *131:62 *183:22 3.83194e-05
66 *131:62 *183:28 0.000857109
67 *131:70 *142:30 0.000196809
68 *131:74 *204:27 0.00117226
69 *131:76 *1406:A 0.00139333
70 *131:76 *1556:B1 0.000343646
71 *131:95 *148:30 0.000480579
72 *131:125 *1406:A 0.000137147
73 *131:125 *1413:A2 0.00112228
74 *131:125 *1416:A 3.68265e-05
75 *131:125 *1416:B 8.52055e-05
76 *131:125 *1418:A 1.27575e-05
77 *131:125 *1520:A1 8.41307e-05
78 *131:125 *1520:A2 0.00012648
79 *131:125 *1523:B1 0
80 *131:125 *1556:B1 4.99487e-05
81 *131:125 *203:31 0
82 *131:125 *208:10 4.8854e-05
83 *1458:A1 *131:62 0.000449759
84 *1458:A1 *131:70 0.000119246
85 *1459:B *1524:A2 7.18795e-06
86 *1459:B *131:95 0.000774374
87 *1459:C *131:70 8.35068e-05
88 *1459:C *131:95 8.40213e-05
89 *1483:B *1419:C 0
90 *1484:B *1388:A 0
91 *1514:C1 *131:76 0.000135651
92 *1516:A2 *1526:A1 0.00022282
93 *1525:C *1524:A2 1.72554e-05
94 *1526:B1 *1526:A1 0.000160213
95 *1531:A *131:125 0.000245411
96 *1554:A_N *1524:A2 7.07261e-05
97 *1554:A_N *131:76 0.000549342
98 *31:14 *1419:C 0
99 *31:14 *131:70 4.66108e-05
100 *32:8 *131:62 0.00029047
101 *33:16 *131:95 0.000105802
102 *39:22 *1388:A 8.33414e-05
103 *46:12 *131:60 0.002083
104 *47:43 *1426:A 6.13525e-05
105 *47:43 *131:48 0.000166396
106 *49:55 *131:60 7.66792e-05
107 *51:14 *1526:A1 0.000829696
108 *56:52 *131:70 7.18983e-05
109 *63:18 *1526:A1 0.000478874
110 *68:16 *1419:C 0.000303873
111 *68:16 *131:74 0.000956065
112 *78:22 *131:60 0.000169048
113 *97:16 *131:62 0.000484305
*RES
1 *1387:X *131:6 3.6 
2 *131:6 *131:8 6.48 
3 *131:8 *1522:A1 15.96 
4 *131:8 *1526:A1 44.965 
5 *131:6 *131:48 21.8275 
6 *131:48 *131:60 32.986 
7 *131:60 *131:62 21.84 
8 *131:62 *131:70 7.885 
9 *131:70 *131:74 13.145 
10 *131:74 *131:76 16.425 
11 *131:76 *1524:A2 9.33 
12 *131:76 *131:95 10.4 
13 *131:95 *1388:A 7.49 
14 *131:95 *1459:A 1.6 
15 *131:74 *131:125 48.465 
16 *131:125 *1523:A1 1.6 
17 *131:70 *1419:C 18.14 
18 *131:62 *1458:B1 1.6 
19 *131:60 *1527:A 1.96 
20 *131:48 *1426:A 6.8625 
*END

*D_NET *132 0.011933
*CONN
*I *1403:A I *D sky130_fd_sc_hd__xnor2_4
*I *1388:Y O *D sky130_fd_sc_hd__nand2_2
*CAP
1 *1403:A 0
2 *1388:Y 0.000148766
3 *132:18 0.00381462
4 *132:12 0.00396339
5 *132:12 *181:87 0
6 *132:12 *207:10 8.41384e-05
7 *132:18 *1403:B 0.000137777
8 *132:18 *137:55 0.000379413
9 *132:18 *188:69 0.000230893
10 *132:18 *192:30 0.000137777
11 *1459:B *132:18 0.00270177
12 *1459:C *132:12 7.06865e-05
13 *1525:C *132:18 0.000161985
14 *39:22 *132:12 0.000101798
*RES
1 *1388:Y *132:12 8.795 
2 *132:12 *132:18 49.625 
3 *132:18 *1403:A 3.6 
*END

*D_NET *133 0.0518485
*CONN
*I *1523:A2 I *D sky130_fd_sc_hd__o22a_1
*I *1399:A1 I *D sky130_fd_sc_hd__a22oi_4
*I *1395:B2 I *D sky130_fd_sc_hd__a22o_1
*I *1457:B1 I *D sky130_fd_sc_hd__a21oi_1
*I *1419:D I *D sky130_fd_sc_hd__and4_2
*I *1524:B1 I *D sky130_fd_sc_hd__a22o_1
*I *1526:A2 I *D sky130_fd_sc_hd__a31o_1
*I *1456:B I *D sky130_fd_sc_hd__and3_1
*I *1391:A I *D sky130_fd_sc_hd__nand2_2
*I *1522:A2 I *D sky130_fd_sc_hd__a21oi_2
*I *1389:X O *D sky130_fd_sc_hd__buf_4
*CAP
1 *1523:A2 0.000564899
2 *1399:A1 0.00175217
3 *1395:B2 0
4 *1457:B1 7.6145e-05
5 *1419:D 0
6 *1524:B1 6.31667e-05
7 *1526:A2 0
8 *1456:B 0.00130616
9 *1391:A 2.08101e-05
10 *1522:A2 0.000288247
11 *1389:X 0.000180382
12 *133:164 0.0035014
13 *133:146 0.00270524
14 *133:137 0.000806873
15 *133:117 0.000453245
16 *133:75 0.00136382
17 *133:60 0.00277697
18 *133:44 0.004221
19 *133:20 0.00250028
20 *133:18 0.00123572
21 *133:12 0.000786779
22 *1399:A1 *1399:A2 1.33269e-05
23 *1399:A1 *1399:B1 0.00252791
24 *1399:A1 *155:20 0.000131856
25 *1456:B *1456:A 4.60123e-05
26 *1456:B *213:30 0.000200615
27 *1456:B *213:32 0.00230346
28 *1457:B1 *201:71 0.000108086
29 *1522:A2 *1536:A1 0.000719474
30 *1522:A2 *134:150 2.14129e-05
31 *1522:A2 *188:18 0
32 *1523:A2 *208:10 0.00138111
33 *1524:B1 *1524:A1 2.49909e-05
34 *133:12 *1483:A 0.000141865
35 *133:12 *1535:A1 5.66018e-05
36 *133:12 *201:23 0.000122331
37 *133:18 *1424:A 0.000106286
38 *133:18 *1535:A1 2.58818e-05
39 *133:18 *1535:B1 3.84331e-05
40 *133:18 *230:10 8.21775e-05
41 *133:20 *1424:A 0.000207134
42 *133:20 *230:10 3.10777e-05
43 *133:20 *230:18 0.00102352
44 *133:44 *1408:A2 9.32602e-06
45 *133:44 *1447:A2 0.000183908
46 *133:44 *1535:B1 7.46619e-05
47 *133:44 *1557:A2 0.000250698
48 *133:44 *1557:B2 0.000102125
49 *133:44 *181:115 0.000307327
50 *133:44 *190:32 0.000994625
51 *133:44 *210:56 0
52 *133:44 *227:23 0
53 *133:60 *1408:A2 0.000280214
54 *133:60 *1587:A 0.000122801
55 *133:60 *135:22 0.000198571
56 *133:60 *179:46 4.63352e-05
57 *133:60 *213:30 0.00119613
58 *133:75 *135:22 2.67275e-05
59 *133:75 *213:30 0.000122331
60 *133:117 *201:71 0.000777147
61 *133:137 *1395:A1 0.000217241
62 *133:137 *1535:A1 6.74126e-05
63 *133:137 *225:84 0.000150113
64 *133:146 *208:10 0
65 *133:146 *225:84 1.56296e-05
66 *133:146 *225:103 0.000397436
67 *133:164 *1394:B 0
68 *133:164 *1493:B 9.92913e-05
69 *133:164 *1518:A2 0
70 *133:164 *137:131 3.96554e-05
71 *133:164 *149:48 0.000164338
72 *133:164 *149:61 9.27255e-06
73 *133:164 *196:122 2.97004e-06
74 *133:164 *225:103 0.00174108
75 out[6] *1522:A2 1.88656e-05
76 *1419:C *1457:B1 0.000161467
77 *1459:B *1524:B1 0.000119866
78 *1480:B *133:44 0.000111445
79 *1491:A_N *133:44 0.000178634
80 *1495:B *133:164 9.50342e-06
81 *1498:B *133:12 8.65961e-05
82 *1510:C *133:44 3.09164e-05
83 *1516:A1 *133:137 0.0001846
84 *1519:B1 *1523:A2 0
85 *1519:B1 *133:137 0
86 *1519:B1 *133:146 0
87 *1524:A2 *1524:B1 1.89912e-05
88 *1526:A1 *133:60 0.000234354
89 *1531:A *1523:A2 7.79864e-05
90 *1531:C *133:44 0.000937051
91 *1531:D_N *133:60 0.000613568
92 *1558:B1 *133:44 2.86265e-06
93 *1559:A3 *133:44 6.33103e-05
94 *41:10 *133:18 0.000132676
95 *41:10 *133:20 0.00103934
96 *41:10 *133:44 0.000479057
97 *41:27 *133:18 0.000176647
98 *50:12 *1522:A2 0.00039747
99 *51:14 *133:60 0.00055147
100 *53:32 *133:18 0.000435724
101 *53:32 *133:20 0.000169759
102 *53:32 *133:44 0.000100289
103 *53:32 *133:137 0.000136692
104 *53:107 *133:137 0.000169439
105 *62:18 *1456:B 0.00154014
106 *63:18 *133:44 0.00034512
107 *63:18 *133:60 1.05984e-05
108 *71:8 *133:12 0.000158072
109 *100:22 *133:60 0.00091889
110 *128:8 *133:20 0.000463754
111 *128:8 *133:44 0.000195657
112 *130:89 *133:44 6.34524e-05
*RES
1 *1389:X *133:12 8.2725 
2 *133:12 *133:18 6.8325 
3 *133:18 *133:20 22.545 
4 *133:20 *133:44 43.6309 
5 *133:44 *133:60 45.745 
6 *133:60 *1522:A2 14.57 
7 *133:60 *133:75 1.14 
8 *133:75 *1391:A 1.96 
9 *133:75 *1456:B 40.28 
10 *133:44 *1526:A2 1.6 
11 *133:20 *1524:B1 5.1 
12 *133:18 *133:117 9.35 
13 *133:117 *1419:D 1.6 
14 *133:117 *1457:B1 3.79 
15 *133:12 *133:137 10.8075 
16 *133:137 *1395:B2 3.6 
17 *133:137 *133:146 8.775 
18 *133:146 *133:164 34.195 
19 *133:164 *1399:A1 26.38 
20 *133:146 *1523:A2 17.76 
*END

*D_NET *134 0.0389526
*CONN
*I *1391:B I *D sky130_fd_sc_hd__nand2_2
*I *1536:A1 I *D sky130_fd_sc_hd__o22a_1
*I *1408:B1 I *D sky130_fd_sc_hd__a22o_1
*I *1538:A1 I *D sky130_fd_sc_hd__a311o_1
*I *1455:B1 I *D sky130_fd_sc_hd__o21ai_4
*I *1428:A I *D sky130_fd_sc_hd__nand2_2
*I *1537:A I *D sky130_fd_sc_hd__nor2_1
*I *1395:A1 I *D sky130_fd_sc_hd__a22o_1
*I *1535:A1 I *D sky130_fd_sc_hd__a21oi_2
*I *1462:A I *D sky130_fd_sc_hd__or3_1
*I *1390:X O *D sky130_fd_sc_hd__buf_4
*CAP
1 *1391:B 0
2 *1536:A1 0.000476342
3 *1408:B1 0
4 *1538:A1 0.000367145
5 *1455:B1 0.000811913
6 *1428:A 0.000896961
7 *1537:A 0
8 *1395:A1 0.000455297
9 *1535:A1 0.000192553
10 *1462:A 2.01001e-05
11 *1390:X 0.000284528
12 *134:150 0.000810072
13 *134:111 0.00120294
14 *134:109 0.000793843
15 *134:107 0.00314433
16 *134:33 0.00145297
17 *134:29 0.00191388
18 *134:23 0.0025832
19 *134:12 0.00125162
20 *134:6 0.0029792
21 *1395:A1 *210:6 0.00027299
22 *1428:A *1450:A2 0.000472804
23 *1428:A *142:170 0
24 *1428:A *172:16 8.41307e-05
25 *1428:A *194:18 0.000493431
26 *1428:A *198:12 9.16271e-05
27 *1455:B1 *1408:A2 0.00120084
28 *1455:B1 *1408:B2 2.26739e-05
29 *1455:B1 *1542:A 2.55917e-05
30 *1455:B1 *152:16 4.66108e-05
31 *1455:B1 *199:31 2.92298e-05
32 *1462:A *1462:B 5.83121e-06
33 *1535:A1 *1535:A2 2.11084e-05
34 *1535:A1 *1535:B1 0.00013333
35 *1535:A1 *136:44 2.33269e-05
36 *1538:A1 *1538:A2 4.82863e-05
37 *1538:A1 *1542:B 9.60712e-05
38 *1538:A1 *152:16 4.43871e-06
39 *1538:A1 *178:12 0.000167451
40 *134:6 *1390:A 0.000376508
41 *134:12 *1390:A 1.08758e-05
42 *134:12 *1412:A 0
43 *134:12 *1455:A2 8.30799e-05
44 *134:12 *1468:A 0.000365169
45 *134:12 *142:94 0.000279695
46 *134:23 *1411:A1 0
47 *134:23 *1412:A 0
48 *134:23 *1455:A2 1.36332e-05
49 *134:23 *198:12 0.000587349
50 *134:29 *1443:A 0.00133592
51 *134:29 *183:70 0.000809557
52 *134:33 *1479:A 0.000263978
53 *134:33 *180:23 0.000140034
54 *134:107 *1444:A 0.000862183
55 *134:107 *1500:B 0.000156861
56 *134:107 *142:94 0.000681582
57 *134:107 *142:112 0.000216682
58 *134:107 *183:131 8.8272e-05
59 *134:107 *188:16 0.000587369
60 *134:107 *188:18 0.000417872
61 *134:107 *227:106 0.00012369
62 *134:107 *228:66 0.000147637
63 *134:109 *1408:B2 4.80285e-05
64 *134:109 *1587:A 0.00119921
65 *134:109 *135:22 1.19928e-05
66 *134:111 *1408:B2 2.75145e-05
67 *134:150 *1587:A 7.23635e-05
68 *1463:B *134:23 0.000137262
69 *1476:A *1538:A1 0.000268267
70 *1478:C *1462:A 4.64939e-05
71 *1503:B1 *134:107 0
72 *1514:C1 *134:107 0.00102784
73 *1516:A2 *1455:B1 0.000442409
74 *1519:B1 *1395:A1 0.000350069
75 *1519:B1 *1535:A1 0.00018123
76 *1522:A2 *1536:A1 0.000719474
77 *1522:A2 *134:150 2.14129e-05
78 *1538:B1 *1538:A1 7.9642e-06
79 *1549:C1 *134:29 0.00105329
80 *1549:C1 *134:33 0.000228863
81 *1552:C *1538:A1 0.000417363
82 *40:14 *134:33 4.66108e-05
83 *47:43 *134:12 0.000407645
84 *50:12 *1536:A1 0.0001032
85 *50:29 *1536:A1 0
86 *50:29 *134:150 0
87 *53:8 *134:33 0.000786577
88 *62:18 *134:107 0
89 *66:14 *1428:A 0
90 *107:12 *1455:B1 0.000555791
91 *131:8 *134:107 0
92 *131:48 *134:107 0
93 *133:12 *1535:A1 5.66018e-05
94 *133:18 *1535:A1 2.58818e-05
95 *133:137 *1395:A1 0.000217241
96 *133:137 *1535:A1 6.74126e-05
*RES
1 *1390:X *134:6 6.19 
2 *134:6 *134:12 18.125 
3 *134:12 *1462:A 4.05 
4 *134:12 *134:23 12.855 
5 *134:23 *134:29 27.65 
6 *134:29 *134:33 19.01 
7 *134:33 *1535:A1 9.135 
8 *134:33 *1395:A1 14.49 
9 *134:29 *1537:A 1.6 
10 *134:23 *1428:A 21.195 
11 *134:6 *134:107 31.1422 
12 *134:107 *134:109 14.94 
13 *134:109 *134:111 0.45 
14 *134:111 *1455:B1 23.825 
15 *134:111 *1538:A1 15.95 
16 *134:109 *1408:B1 1.6 
17 *134:107 *134:150 6.845 
18 *134:150 *1536:A1 14.61 
19 *134:150 *1391:B 3.6 
*END

*D_NET *135 0.0288723
*CONN
*I *1427:C I *D sky130_fd_sc_hd__and3_2
*I *1492:A1 I *D sky130_fd_sc_hd__a21oi_1
*I *1396:A1 I *D sky130_fd_sc_hd__o21ai_4
*I *1391:Y O *D sky130_fd_sc_hd__nand2_2
*CAP
1 *1427:C 0
2 *1492:A1 0.00124507
3 *1396:A1 0.00166113
4 *1391:Y 0.00114309
5 *135:51 0.00185147
6 *135:32 0.0029534
7 *135:22 0.00182896
8 *1396:A1 *1396:A2 8.71734e-05
9 *1396:A1 *1436:A 2.10214e-05
10 *1396:A1 *140:8 0.00182788
11 *1396:A1 *180:8 2.49909e-05
12 *1396:A1 *209:28 0.000382629
13 *1492:A1 *1431:B1 0
14 *1492:A1 *1442:B 0.000303356
15 *1492:A1 *1492:B1 0.00143169
16 *1492:A1 *1512:B1 0.000270209
17 *1492:A1 *136:73 0.000144649
18 *1492:A1 *149:63 0
19 *1492:A1 *149:67 0.000137313
20 *1492:A1 *182:8 0.000575246
21 *1492:A1 *186:59 0.000924618
22 *135:22 *1387:A 0.000112689
23 *135:22 *1408:A1 0.000169195
24 *135:22 *1408:B2 0.000167086
25 *135:22 *1587:A 7.27003e-05
26 *135:22 *152:16 0.000790191
27 *135:22 *178:12 0.000224487
28 *135:32 *1482:A3 0.000452918
29 *135:32 *152:16 3.05366e-05
30 *135:32 *158:14 0.000860746
31 *135:32 *177:28 0.000452918
32 *135:32 *205:21 0.000106413
33 *135:51 *1431:B1 0.00103452
34 *135:51 *1442:B 0.000353869
35 *135:51 *1443:C_N 9.57142e-05
36 *135:51 *1482:A3 0.000136143
37 *135:51 *1502:C1 1.68797e-05
38 *135:51 *177:28 0.000877187
39 *1487:A *135:32 0.000342107
40 *1488:B1 *1492:A1 0
41 *1526:A1 *135:22 0.00131134
42 *1533:C *1492:A1 0.000507094
43 *1552:C *135:22 0.000260831
44 *1552:C *135:32 0.00128589
45 *35:61 *135:32 0.000356569
46 *35:71 *1492:A1 7.01243e-05
47 *49:71 *135:22 1.44259e-05
48 *51:14 *135:22 0.00116158
49 *65:12 *1492:A1 2.49909e-05
50 *97:16 *1396:A1 0.000431455
51 *100:22 *135:22 0.000100544
52 *133:60 *135:22 0.000198571
53 *133:75 *135:22 2.67275e-05
54 *134:109 *135:22 1.19928e-05
*RES
1 *1391:Y *135:22 39.9175 
2 *135:22 *135:32 26.5675 
3 *135:32 *1396:A1 35.445 
4 *135:32 *135:51 20.54 
5 *135:51 *1492:A1 43.58 
6 *135:51 *1427:C 1.6 
*END

*D_NET *136 0.0428506
*CONN
*I *1394:A I *D sky130_fd_sc_hd__nand2_2
*I *1395:A2 I *D sky130_fd_sc_hd__a22o_1
*I *1453:B1 I *D sky130_fd_sc_hd__a21oi_2
*I *1410:A2 I *D sky130_fd_sc_hd__a31o_1
*I *1536:A2 I *D sky130_fd_sc_hd__o22a_1
*I *1538:A2 I *D sky130_fd_sc_hd__a311o_1
*I *1427:A I *D sky130_fd_sc_hd__and3_2
*I *1535:A2 I *D sky130_fd_sc_hd__a21oi_2
*I *1416:B I *D sky130_fd_sc_hd__nand2_1
*I *1465:A1 I *D sky130_fd_sc_hd__o21a_1
*I *1392:X O *D sky130_fd_sc_hd__buf_4
*CAP
1 *1394:A 0.00013776
2 *1395:A2 8.3774e-05
3 *1453:B1 7.75065e-05
4 *1410:A2 3.3463e-05
5 *1536:A2 0.000168356
6 *1538:A2 0.000752426
7 *1427:A 0
8 *1535:A2 4.13187e-05
9 *1416:B 8.45659e-05
10 *1465:A1 0.000842295
11 *1392:X 0.000170085
12 *136:150 0.000509145
13 *136:108 0.00215513
14 *136:100 0.00260165
15 *136:73 0.00155679
16 *136:69 0.00273445
17 *136:61 0.00310246
18 *136:44 0.0010567
19 *136:16 0.00109348
20 *136:12 0.000971226
21 *1394:A *138:10 0.000128282
22 *1394:A *208:10 0.000504184
23 *1394:A *209:10 0.000286754
24 *1395:A2 *210:6 8.88631e-05
25 *1410:A2 *1426:B 1.91597e-05
26 *1410:A2 *1426:C 8.40269e-05
27 *1416:B *1416:A 7.18771e-05
28 *1416:B *1520:A1 8.41307e-05
29 *1453:B1 *224:23 4.77757e-05
30 *1465:A1 *1465:A2 8.18542e-05
31 *1465:A1 *1465:B1 0.000110025
32 *1465:A1 *1507:B1 2.07448e-05
33 *1465:A1 *193:18 0.000111827
34 *1465:A1 *207:10 0.00066041
35 *1465:A1 *207:25 0.00103608
36 *1465:A1 *219:30 0.000589075
37 *1538:A2 *1553:B 0
38 *1538:A2 *178:12 4.0335e-05
39 *1538:A2 *213:30 0.000177453
40 *136:12 *1392:A 0.000210144
41 *136:16 *207:25 0.000642473
42 *136:16 *219:30 0.000173755
43 *136:44 *1535:B1 1.26248e-05
44 *136:61 *1535:B1 3.81908e-06
45 *136:61 *208:14 0.00011852
46 *136:61 *209:16 0.000116853
47 *136:61 *225:84 0.000229536
48 *136:69 *149:67 7.5416e-05
49 *136:69 *186:59 6.75724e-05
50 *136:73 *1442:B 6.60257e-06
51 *136:73 *149:67 0.000612067
52 *136:73 *149:73 3.86814e-05
53 *136:73 *186:59 0.00035149
54 *136:100 *1410:B1 0.000585765
55 *136:100 *1443:C_N 0.000228746
56 *136:100 *142:112 0.000183745
57 *136:100 *143:30 0.000945131
58 *136:100 *167:24 2.59892e-05
59 *136:100 *183:22 0.000226752
60 *136:100 *192:30 0.000907814
61 *136:100 *194:24 0.000192229
62 *136:100 *196:68 0.000889958
63 *136:108 *1426:C 0.00013521
64 *136:108 *1553:B 0
65 *136:108 *1586:A 0.000348398
66 *136:108 *142:112 0.000201945
67 *136:108 *227:106 0.000396236
68 *136:150 *208:10 0.000222373
69 *136:150 *208:14 0.000765229
70 *136:150 *209:10 0.000827144
71 *136:150 *209:16 0.000159964
72 *1426:A *1410:A2 7.10578e-05
73 *1464:A2 *136:69 0.0017675
74 *1471:A3 *136:69 0.000286187
75 *1486:A *136:108 0.00035509
76 *1489:A *136:100 0.000304474
77 *1490:C1 *136:73 0.000103037
78 *1492:A1 *136:73 0.000144649
79 *1502:A2 *136:100 1.23331e-05
80 *1502:A2 *136:108 0.00042878
81 *1508:B *136:100 2.76356e-05
82 *1515:A1 *136:100 2.8041e-05
83 *1522:A1 *136:108 0
84 *1535:A1 *1535:A2 2.11084e-05
85 *1535:A1 *136:44 2.33269e-05
86 *1536:B2 *1536:A2 0.000562751
87 *1536:B2 *1538:A2 0.000497405
88 *1538:A1 *1538:A2 4.82863e-05
89 *1538:B1 *1536:A2 0.000460473
90 *1538:B1 *1538:A2 0.000495084
91 *1550:A1 *136:69 0.000118341
92 *1561:A *136:100 0.000315064
93 *39:22 *1465:A1 0.00019223
94 *41:27 *136:61 7.79931e-05
95 *41:27 *136:69 0.000115021
96 *45:33 *136:108 0
97 *46:12 *136:100 0.000388358
98 *49:55 *136:100 0.000126376
99 *51:14 *136:108 0.000293712
100 *102:28 *136:100 0.000105649
101 *109:30 *1465:A1 0.000585296
102 *121:10 *1465:A1 0.00184195
103 *121:10 *136:12 0.000116629
104 *121:10 *136:16 0.000633942
105 *131:125 *1416:B 8.52055e-05
*RES
1 *1392:X *136:12 9.14 
2 *136:12 *136:16 9.5 
3 *136:16 *1465:A1 34.515 
4 *136:16 *1416:B 5.775 
5 *136:12 *136:44 6.66 
6 *136:44 *1535:A2 2.77 
7 *136:44 *136:61 7.625 
8 *136:61 *136:69 34.99 
9 *136:69 *136:73 9.755 
10 *136:73 *1427:A 1.6 
11 *136:73 *136:100 43.5376 
12 *136:100 *136:108 32.75 
13 *136:108 *1538:A2 20.375 
14 *136:108 *1536:A2 7.57 
15 *136:100 *1410:A2 4.74 
16 *136:69 *1453:B1 4.74 
17 *136:61 *136:150 11.835 
18 *136:150 *1395:A2 5.085 
19 *136:150 *1394:A 9.57 
*END

*D_NET *137 0.0440729
*CONN
*I *1546:A2 I *D sky130_fd_sc_hd__o22a_1
*I *1545:A2 I *D sky130_fd_sc_hd__a21oi_1
*I *1394:B I *D sky130_fd_sc_hd__nand2_2
*I *1493:B I *D sky130_fd_sc_hd__nand3_2
*I *1494:A2 I *D sky130_fd_sc_hd__a21o_1
*I *1547:A I *D sky130_fd_sc_hd__nor2_1
*I *1427:B I *D sky130_fd_sc_hd__and3_2
*I *1548:A2 I *D sky130_fd_sc_hd__a311o_1
*I *1468:A I *D sky130_fd_sc_hd__nor2_2
*I *1467:A I *D sky130_fd_sc_hd__nand2_2
*I *1393:X O *D sky130_fd_sc_hd__buf_4
*CAP
1 *1546:A2 0
2 *1545:A2 2.11528e-05
3 *1394:B 0.00112586
4 *1493:B 0.00133447
5 *1494:A2 0
6 *1547:A 0.000306877
7 *1427:B 3.52758e-05
8 *1548:A2 0.000218515
9 *1468:A 0.00029744
10 *1467:A 0.00191405
11 *1393:X 0.000660767
12 *137:133 0.00133447
13 *137:131 0.00174435
14 *137:112 0.00141978
15 *137:63 0.00091172
16 *137:59 0.00144042
17 *137:55 0.00235244
18 *137:43 0.00152013
19 *137:28 0.00303798
20 *137:16 0.00113436
21 *1394:B *1506:A 0
22 *1394:B *1506:B 0
23 *1394:B *1518:A1 0.00016569
24 *1394:B *1518:A2 8.65905e-05
25 *1394:B *1518:C1 4.82919e-05
26 *1394:B *138:10 5.56629e-05
27 *1394:B *208:10 0
28 *1427:B *1442:B 7.15381e-05
29 *1427:B *149:73 2.5571e-05
30 *1467:A *1417:B 0.000706014
31 *1468:A *1455:A2 0.000363944
32 *1493:B *1518:A1 0.000127451
33 *1493:B *1581:A 0.00164734
34 *1493:B *149:61 0.00153638
35 *1545:A2 *149:73 2.49909e-05
36 *1547:A *1547:B 4.77769e-05
37 *1548:A2 *1399:A2 0.000337371
38 *1548:A2 *1431:A2 0
39 *1548:A2 *1548:A3 9.09788e-06
40 *137:16 *1536:B1 0
41 *137:16 *1546:B1 4.66108e-05
42 *137:16 *1558:A1 0.000416426
43 *137:16 *168:36 0.000669444
44 *137:28 *1455:A1 0.000133676
45 *137:28 *1546:A1 0.00118744
46 *137:28 *1558:A1 0.000119866
47 *137:28 *149:87 4.44927e-05
48 *137:28 *158:49 0.000687329
49 *137:28 *176:24 0.000246758
50 *137:28 *188:81 0.000292059
51 *137:28 *196:26 2.47149e-05
52 *137:28 *226:48 4.77719e-05
53 *137:43 *1417:B 8.34281e-06
54 *137:43 *1426:B 0.000273819
55 *137:43 *186:24 0.000466196
56 *137:43 *220:20 0.000638747
57 *137:55 *1402:A 0.000138266
58 *137:55 *1425:A_N 0.000866443
59 *137:55 *1455:A1 0.000391149
60 *137:55 *171:20 0.000225695
61 *137:55 *185:10 0.000343231
62 *137:55 *186:24 0.000178234
63 *137:55 *220:20 0.000125362
64 *137:59 *1406:B 0.000341393
65 *137:59 *1451:B 0.000388037
66 *137:59 *194:24 0.000153363
67 *137:63 *1443:B 3.60409e-05
68 *137:63 *194:24 0.000266377
69 *137:112 *1421:A 4.36573e-06
70 *137:112 *1432:A 0.00051269
71 *137:112 *155:20 0.000200571
72 *137:112 *171:20 3.25509e-05
73 *137:112 *172:24 0.000421763
74 *137:112 *185:10 0.0010111
75 *137:112 *209:85 0.000238719
76 *137:131 *1471:A2 0
77 *137:131 *1492:B1 6.36356e-05
78 *137:131 *155:20 0.000177213
79 *137:131 *168:16 1.1561e-05
80 *137:131 *172:24 0.000675695
81 *137:131 *185:10 7.25652e-05
82 *137:131 *196:122 0
83 *137:131 *209:85 8.33066e-06
84 *1467:B *1467:A 8.247e-05
85 *1475:B *1548:A2 5.16479e-05
86 *1475:B *137:63 8.83758e-05
87 *1488:B1 *1394:B 9.80943e-06
88 *1494:B1 *1493:B 0.000260812
89 *1495:B *137:131 4.73737e-05
90 *1518:B1 *1394:B 8.65905e-05
91 *1525:C *137:55 0.000381258
92 *1529:B *1467:A 0.000162987
93 *1546:B2 *137:16 4.77807e-05
94 *1548:B1 *1548:A2 3.60024e-06
95 *1551:B *1545:A2 1.56428e-05
96 *42:10 *1468:A 0.00022645
97 *42:10 *137:55 1.08797e-05
98 *45:21 *137:131 0.000870225
99 *49:12 *1548:A2 0.000377136
100 *49:12 *137:63 0.000810718
101 *53:76 *137:16 8.92987e-05
102 *61:22 *1547:A 4.95514e-05
103 *89:8 *1394:B 0.00070607
104 *98:12 *1547:A 8.35068e-05
105 *114:8 *137:16 4.97393e-05
106 *114:8 *137:28 5.83121e-06
107 *129:8 *1547:A 0.000262813
108 *130:67 *137:43 0.000156928
109 *132:18 *137:55 0.000379413
110 *133:164 *1394:B 0
111 *133:164 *1493:B 9.92913e-05
112 *133:164 *137:131 3.96554e-05
113 *134:12 *1468:A 0.000365169
*RES
1 *1393:X *137:16 19.175 
2 *137:16 *137:28 20.59 
3 *137:28 *1467:A 24.4 
4 *137:28 *137:43 14.69 
5 *137:43 *137:55 29.845 
6 *137:55 *137:59 14.525 
7 *137:59 *137:63 9.435 
8 *137:63 *1468:A 13.265 
9 *137:63 *1548:A2 11.6 
10 *137:59 *1427:B 6.47 
11 *137:55 *137:112 16.05 
12 *137:112 *1547:A 8.325 
13 *137:112 *137:131 15.945 
14 *137:131 *137:133 2 
15 *137:133 *1494:A2 1.6 
16 *137:133 *1493:B 23.7956 
17 *137:131 *1394:B 30.16 
18 *137:43 *1545:A2 4.05 
19 *137:16 *1546:A2 1.6 
*END

*D_NET *138 0.0185495
*CONN
*I *1492:B1 I *D sky130_fd_sc_hd__a21oi_1
*I *1396:A2 I *D sky130_fd_sc_hd__o21ai_4
*I *1394:Y O *D sky130_fd_sc_hd__nand2_2
*CAP
1 *1492:B1 0.0018841
2 *1396:A2 0.00128131
3 *1394:Y 0.000167874
4 *138:10 0.00333328
5 *1396:A2 *1396:B1 0.00299801
6 *1396:A2 *168:8 5.43631e-05
7 *1396:A2 *193:8 0
8 *1396:A2 *203:37 0.000153816
9 *1396:A2 *208:10 0.000408217
10 *1396:A2 *208:14 0.00237717
11 *1396:A2 *225:84 0
12 *1396:A2 *225:103 0
13 *1492:B1 *1471:A2 0.000180682
14 *1492:B1 *168:8 0.000618093
15 *1492:B1 *182:8 3.27443e-05
16 *1492:B1 *203:37 0.00157679
17 *138:10 *1506:A 0
18 *138:10 *208:10 2.03321e-05
19 *138:10 *209:10 9.14049e-05
20 *1394:A *138:10 0.000128282
21 *1394:B *138:10 5.56629e-05
22 *1396:A1 *1396:A2 8.71734e-05
23 *1492:A1 *1492:B1 0.00143169
24 *1516:A2 *1396:A2 0.000413503
25 *1533:A *1492:B1 0.000494309
26 *1533:C *1492:B1 0.000218425
27 *70:22 *1396:A2 9.04308e-05
28 *102:28 *1492:B1 0.000341197
29 *122:20 *1396:A2 4.70261e-05
30 *137:131 *1492:B1 6.36356e-05
*RES
1 *1394:Y *138:10 9.785 
2 *138:10 *1396:A2 47.795 
3 *138:10 *1492:B1 49.7 
*END

*D_NET *139 0.00757616
*CONN
*I *1396:B1 I *D sky130_fd_sc_hd__o21ai_4
*I *1395:X O *D sky130_fd_sc_hd__a22o_1
*CAP
1 *1396:B1 0.00107357
2 *1395:X 0.00107357
3 *1396:B1 *210:6 4.66108e-05
4 *1396:B1 *225:84 0.000231102
5 *1396:A2 *1396:B1 0.00299801
6 *1467:B *1396:B1 0.000654425
7 *1516:A2 *1396:B1 0.000145987
8 *40:14 *1396:B1 0.000971915
9 *53:32 *1396:B1 0.000368311
10 *70:22 *1396:B1 1.26548e-05
*RES
1 *1395:X *1396:B1 43.71 
*END

*D_NET *140 0.0128262
*CONN
*I *1425:A_N I *D sky130_fd_sc_hd__and2b_2
*I *1402:A I *D sky130_fd_sc_hd__xnor2_4
*I *1396:Y O *D sky130_fd_sc_hd__o21ai_4
*CAP
1 *1425:A_N 0.000683085
2 *1402:A 0.00129949
3 *1396:Y 0.00104186
4 *140:8 0.00302444
5 *1402:A *1446:A1 4.17805e-05
6 *1402:A *1446:B2 0
7 *1402:A *1455:A1 0.000303148
8 *1402:A *1455:A2 0.000702809
9 *1402:A *142:123 0.000479167
10 *1402:A *171:20 0.000415572
11 *1402:A *206:62 0.000480174
12 *1402:A *227:81 8.30853e-06
13 *1425:A_N *1455:A2 0.000129951
14 *1425:A_N *169:10 4.66108e-05
15 *1425:A_N *171:20 0.00071798
16 *1425:A_N *179:20 0.000365093
17 *1396:A1 *140:8 0.00182788
18 *1529:B *1402:A 0.00020021
19 *1559:B1 *1402:A 3.27519e-05
20 *63:10 *1402:A 2.12292e-05
21 *137:55 *1402:A 0.000138266
22 *137:55 *1425:A_N 0.000866443
*RES
1 *1396:Y *140:8 20.955 
2 *140:8 *1402:A 35.485 
3 *140:8 *1425:A_N 20.22 
*END

*D_NET *141 0.0192875
*CONN
*I *1406:B I *D sky130_fd_sc_hd__or3_4
*I *1401:A1 I *D sky130_fd_sc_hd__o21bai_4
*I *1407:B1 I *D sky130_fd_sc_hd__o21ai_2
*I *1397:Y O *D sky130_fd_sc_hd__nand2_2
*CAP
1 *1406:B 0.00169366
2 *1401:A1 0.000121599
3 *1407:B1 9.44446e-05
4 *1397:Y 0.000147519
5 *141:28 0.00214734
6 *141:10 0.00377247
7 *1401:A1 *1407:A2 3.25944e-05
8 *1401:A1 *1500:A 0.000228848
9 *1406:B *1451:B 0.000305039
10 *1406:B *1520:A2 0.000346344
11 *1406:B *171:20 0.000778648
12 *1406:B *186:24 0.000111146
13 *1406:B *194:24 4.66108e-05
14 *1406:B *197:35 0.000598454
15 *1406:B *220:20 0.000109849
16 *1407:B1 *1401:B1_N 4.77769e-05
17 *1407:B1 *1407:A2 0.000145119
18 *1407:B1 *1500:A 2.03356e-05
19 *1407:B1 *145:10 6.2139e-05
20 *141:10 *1421:B 5.93673e-05
21 *141:10 *1431:A1 0.000271848
22 *141:10 *202:35 4.7003e-05
23 *141:28 *1431:A1 0.000561115
24 *141:28 *1435:B 0.000540546
25 *141:28 *1482:A3 0.000721622
26 *141:28 *152:16 9.94386e-05
27 *141:28 *158:14 0.00133546
28 *141:28 *177:28 4.12303e-05
29 *141:28 *196:47 0.00033027
30 *1487:A *141:28 0.00018336
31 *1490:C1 *141:28 1.01674e-05
32 *1501:C_N *1401:A1 1.1392e-05
33 *1502:B1 *1407:B1 5.14672e-05
34 *1502:B1 *141:28 0.00072421
35 *1548:B1 *141:10 8.41307e-05
36 *1551:A *141:10 0.000106507
37 *1551:A *141:28 0.000156538
38 *1552:C *141:28 0.000110908
39 *35:61 *141:28 2.89072e-05
40 *35:71 *141:28 0.00059046
41 *69:20 *1406:B 0.0016149
42 *80:14 *1407:B1 5.00404e-05
43 *80:14 *141:28 0.000129972
44 *102:28 *141:28 0.000130138
45 *131:60 *141:28 0.000145179
46 *137:59 *1406:B 0.000341393
*RES
1 *1397:Y *141:10 7.815 
2 *141:10 *141:28 44.1499 
3 *141:28 *1407:B1 6.51 
4 *141:28 *1401:A1 6.39 
5 *141:10 *1406:B 41.965 
*END

*D_NET *142 0.0470879
*CONN
*I *1518:A1 I *D sky130_fd_sc_hd__o211ai_2
*I *1399:B2 I *D sky130_fd_sc_hd__a22oi_4
*I *1456:C I *D sky130_fd_sc_hd__and3_1
*I *1521:A1 I *D sky130_fd_sc_hd__a31o_1
*I *1408:B2 I *D sky130_fd_sc_hd__a22o_1
*I *1460:B_N I *D sky130_fd_sc_hd__or2b_1
*I *1457:A1 I *D sky130_fd_sc_hd__a21oi_1
*I *1419:A I *D sky130_fd_sc_hd__and4_2
*I *1524:A1 I *D sky130_fd_sc_hd__a22o_1
*I *1519:A1 I *D sky130_fd_sc_hd__a31o_1
*I *1398:X O *D sky130_fd_sc_hd__buf_4
*CAP
1 *1518:A1 0.00156041
2 *1399:B2 0
3 *1456:C 0.000146319
4 *1521:A1 0
5 *1408:B2 0.000542501
6 *1460:B_N 0.000119753
7 *1457:A1 4.54379e-05
8 *1419:A 7.20759e-05
9 *1524:A1 0.000333131
10 *1519:A1 0.000479624
11 *1398:X 0
12 *142:170 0.00265744
13 *142:123 0.00101701
14 *142:112 0.0019386
15 *142:94 0.00249277
16 *142:78 0.00244617
17 *142:30 0.00188099
18 *142:18 0.00122719
19 *142:16 0.00233503
20 *142:4 0.00254974
21 *1408:B2 *1408:A2 0.000939516
22 *1408:B2 *158:49 9.86169e-05
23 *1419:A *1419:B 6.61657e-05
24 *1456:C *1456:A 0.000325361
25 *1457:A1 *223:10 0.00013457
26 *1460:B_N *1469:B 0.000301115
27 *1460:B_N *148:46 2.76356e-05
28 *1518:A1 *1493:A 7.91885e-05
29 *1519:A1 *1413:A1 1.31944e-05
30 *1519:A1 *1519:A2 8.63511e-05
31 *1519:A1 *1519:A3 3.96653e-05
32 *1519:A1 *204:8 4.66108e-05
33 *1524:A1 *1535:B1 0.00112
34 *1524:A1 *164:23 0.00111946
35 *1524:A1 *167:34 0.000242702
36 *142:16 *1398:A 5.61031e-05
37 *142:16 *143:58 0.00277771
38 *142:16 *192:30 6.02202e-05
39 *142:16 *197:10 0.000114492
40 *142:18 *143:58 0.000109603
41 *142:30 *1519:A3 0.000518511
42 *142:30 *143:58 0.000192493
43 *142:94 *1390:A 0.000718735
44 *142:94 *1399:A2 0.000325575
45 *142:94 *1431:A2 0.000314311
46 *142:94 *1444:A 0.000107225
47 *142:94 *1455:A2 0.000544378
48 *142:94 *1548:A1 0.000112649
49 *142:94 *198:12 2.39512e-05
50 *142:112 *1444:A 2.05661e-05
51 *142:112 *1469:A 0.000377109
52 *142:112 *1469:B 0.00181199
53 *142:112 *183:131 0.000174054
54 *142:112 *227:106 0.000552515
55 *142:123 *1455:A1 0.000687629
56 *142:123 *1455:A2 0.000108266
57 *142:123 *158:49 0.000300436
58 *142:123 *176:24 0.000146003
59 *142:123 *211:24 1.7635e-05
60 *142:170 *1399:A2 0.000863463
61 *142:170 *1450:A1 0
62 *142:170 *1450:B1 0.000649453
63 *142:170 *1454:C 0.000269304
64 *142:170 *198:12 0.000274682
65 *142:170 *202:48 0.000863463
66 *1394:B *1518:A1 0.00016569
67 *1402:A *142:123 0.000479167
68 *1419:C *1419:A 6.61657e-05
69 *1419:C *1457:A1 0.000133217
70 *1428:A *142:170 0
71 *1455:B1 *1408:B2 2.26739e-05
72 *1459:B *1524:A1 1.19928e-05
73 *1461:C *1460:B_N 4.23612e-05
74 *1461:C *142:112 0.000247962
75 *1463:B *142:16 0.00022786
76 *1463:B *142:78 8.03466e-05
77 *1480:B *142:94 5.57344e-06
78 *1483:B *142:30 0.000662666
79 *1488:B1 *1518:A1 0.00149073
80 *1493:B *1518:A1 0.000127451
81 *1502:A2 *142:112 5.57054e-05
82 *1509:A2 *1408:B2 6.67166e-05
83 *1519:B1 *1519:A1 0.000747176
84 *1520:B1 *1519:A1 8.35157e-05
85 *1524:A2 *1524:A1 8.35118e-05
86 *1524:B1 *1524:A1 2.49909e-05
87 *1548:C1 *142:94 0.000333171
88 *1548:C1 *142:170 8.33066e-06
89 *30:10 *1456:C 0.000150336
90 *35:61 *142:112 8.35068e-05
91 *47:43 *142:94 0
92 *47:43 *142:112 0
93 *56:52 *142:30 0
94 *63:10 *1408:B2 0
95 *63:10 *142:123 0
96 *65:12 *1518:A1 0
97 *65:12 *142:170 0
98 *66:14 *1518:A1 0
99 *66:14 *142:170 0
100 *78:22 *1518:A1 0.000107111
101 *131:70 *142:30 0.000196809
102 *134:12 *142:94 0.000279695
103 *134:107 *142:94 0.000681582
104 *134:107 *142:112 0.000216682
105 *134:109 *1408:B2 4.80285e-05
106 *134:111 *1408:B2 2.75145e-05
107 *135:22 *1408:B2 0.000167086
108 *136:100 *142:112 0.000183745
109 *136:108 *142:112 0.000201945
*RES
1 *1398:X *142:4 1.6 
2 *142:4 *142:16 34.495 
3 *142:16 *142:18 1.14 
4 *142:18 *142:30 22.84 
5 *142:30 *1519:A1 10.705 
6 *142:30 *1524:A1 19.505 
7 *142:18 *1419:A 7.235 
8 *142:16 *1457:A1 7.235 
9 *142:4 *142:78 4.59 
10 *142:78 *142:94 30.0467 
11 *142:94 *142:112 35.375 
12 *142:112 *1460:B_N 4.465 
13 *142:112 *142:123 14.6 
14 *142:123 *1408:B2 15.96 
15 *142:123 *1521:A1 3.6 
16 *142:94 *1456:C 7.45125 
17 *142:78 *142:170 33.18 
18 *142:170 *1399:B2 3.6 
19 *142:170 *1518:A1 32.82 
*END

*D_NET *143 0.0261266
*CONN
*I *1406:C I *D sky130_fd_sc_hd__or3_4
*I *1401:A2 I *D sky130_fd_sc_hd__o21bai_4
*I *1407:A2 I *D sky130_fd_sc_hd__o21ai_2
*I *1399:Y O *D sky130_fd_sc_hd__a22oi_4
*CAP
1 *1406:C 0
2 *1401:A2 0
3 *1407:A2 0.000433745
4 *1399:Y 0.00112423
5 *143:58 0.00143012
6 *143:30 0.00228665
7 *143:10 0.00440726
8 *1407:A2 *1401:B1_N 3.45556e-05
9 *1407:A2 *145:10 3.03764e-05
10 *1407:A2 *151:22 4.77769e-05
11 *143:10 *1399:B1 0.000610019
12 *143:10 *1443:A 0.000488219
13 *143:10 *151:39 0.00050699
14 *143:10 *154:21 0.00031065
15 *143:10 *192:10 0.000127392
16 *143:10 *192:16 2.39642e-05
17 *143:10 *194:18 0.000267109
18 *143:10 *196:95 0.000302965
19 *143:30 *1443:A 0.000115582
20 *143:30 *1443:B 0
21 *143:30 *1462:B 1.73877e-05
22 *143:30 *1469:A 4.23439e-05
23 *143:30 *151:22 6.53055e-05
24 *143:30 *151:39 0.00034812
25 *143:30 *154:21 0.000122765
26 *143:30 *156:14 0.000110785
27 *143:30 *183:22 2.47287e-05
28 *143:30 *196:47 0.000890071
29 *143:30 *196:68 0.00108284
30 *143:30 *196:95 2.14129e-05
31 *143:30 *222:45 1.45731e-05
32 *143:58 *1418:B 0.0002014
33 *143:58 *164:23 0.000153816
34 *143:58 *201:27 0.000203074
35 *143:58 *202:35 0.00351764
36 *143:58 *202:48 0.00042744
37 *1401:A1 *1407:A2 3.25944e-05
38 *1407:B1 *1407:A2 0.000145119
39 *1480:B *143:30 0.00103305
40 *1503:B1 *143:30 0.000175475
41 *1508:B *143:30 0.000919589
42 *1515:A1 *143:30 4.57523e-06
43 *136:100 *143:30 0.000945131
44 *142:16 *143:58 0.00277771
45 *142:18 *143:58 0.000109603
46 *142:30 *143:58 0.000192493
*RES
1 *1399:Y *143:10 33.555 
2 *143:10 *143:30 36.3672 
3 *143:30 *1407:A2 7.3525 
4 *143:30 *1401:A2 1.6 
5 *143:10 *143:58 48.87 
6 *143:58 *1406:C 1.6 
*END

*D_NET *144 0.019781
*CONN
*I *1406:A I *D sky130_fd_sc_hd__or3_4
*I *1401:B1_N I *D sky130_fd_sc_hd__o21bai_4
*I *1407:A1 I *D sky130_fd_sc_hd__o21ai_2
*I *1400:X O *D sky130_fd_sc_hd__and4_2
*CAP
1 *1406:A 0.0010914
2 *1401:B1_N 0.000186408
3 *1407:A1 4.36456e-05
4 *1400:X 0.000423995
5 *144:30 0.00234761
6 *144:10 0.00363295
7 *1401:B1_N *1540:A1 7.18107e-06
8 *1401:B1_N *1587:A 1.32102e-05
9 *1401:B1_N *145:10 0.000155608
10 *1401:B1_N *151:22 7.51418e-05
11 *1406:A *1544:B 0.00123651
12 *1406:A *1556:B1 0
13 *1406:A *167:34 3.99339e-05
14 *1406:A *201:27 0.00101861
15 *1406:A *201:33 0.00130688
16 *1407:A1 *204:46 0.000112954
17 *144:10 *1544:B 0.000136685
18 *144:10 *201:33 0.000872782
19 *144:30 *1446:A1 2.68526e-05
20 *144:30 *1446:B2 4.05956e-05
21 *144:30 *1540:A1 6.3272e-05
22 *144:30 *1542:A 4.77807e-05
23 *144:30 *1590:A 2.49909e-05
24 *144:30 *190:32 0.000158414
25 *144:30 *199:31 3.75203e-05
26 *144:30 *225:10 0.000487944
27 *144:30 *225:74 0.000183404
28 *144:30 *227:23 9.02009e-05
29 *144:30 *227:66 0.000720549
30 *144:30 *227:106 2.19562e-06
31 *144:30 *228:35 3.67118e-05
32 *1407:A2 *1401:B1_N 3.45556e-05
33 *1407:B1 *1401:B1_N 4.77769e-05
34 *1461:B *144:30 0.00114078
35 *1461:C *144:30 5.01066e-05
36 *1497:B *1406:A 0.000310474
37 *1498:B *1406:A 2.30797e-05
38 *1524:A2 *1406:A 6.93701e-05
39 *1540:B1 *1401:B1_N 0.000136662
40 *1554:A_N *1406:A 0.000583157
41 *35:12 *144:30 0.000245672
42 *46:12 *1401:B1_N 4.17952e-05
43 *49:71 *1407:A1 5.98894e-05
44 *91:26 *144:30 0.000194915
45 *104:26 *1406:A 0.000434064
46 *120:10 *144:10 0.000256335
47 *131:76 *1406:A 0.00139333
48 *131:125 *1406:A 0.000137147
*RES
1 *1400:X *144:10 13.71 
2 *144:10 *144:30 41.045 
3 *144:30 *1407:A1 6.98 
4 *144:30 *1401:B1_N 9.605 
5 *144:10 *1406:A 45.015 
*END

*D_NET *145 0.0116458
*CONN
*I *1402:B I *D sky130_fd_sc_hd__xnor2_4
*I *1425:B I *D sky130_fd_sc_hd__and2b_2
*I *1401:Y O *D sky130_fd_sc_hd__o21bai_4
*CAP
1 *1402:B 0
2 *1425:B 5.74665e-05
3 *1401:Y 0.00033337
4 *145:26 0.00158173
5 *145:10 0.00185763
6 *1425:B *1519:A3 0.000228231
7 *1425:B *179:20 0.000228231
8 *145:10 *1500:A 8.2555e-05
9 *145:10 *206:62 0.000703521
10 *145:26 *1429:B 0.00194794
11 *145:26 *1432:A 0.000145901
12 *145:26 *174:24 0.000331084
13 *145:26 *175:28 0.000155012
14 *145:26 *183:170 0.000219444
15 *145:26 *199:31 0.000250031
16 *145:26 *206:62 0.000201234
17 *145:26 *227:66 2.98644e-05
18 *145:26 *227:81 0.000732745
19 *1401:B1_N *145:10 0.000155608
20 *1407:A2 *145:10 3.03764e-05
21 *1407:B1 *145:10 6.2139e-05
22 *1505:B1 *145:26 0.000624914
23 *1538:C1 *145:26 0.000359229
24 *35:61 *145:10 0.000227078
25 *68:10 *145:26 7.83172e-05
26 *98:12 *145:26 0.00102215
*RES
1 *1401:Y *145:10 10.36 
2 *145:10 *145:26 49.33 
3 *145:26 *1425:B 3.775 
4 *145:10 *1402:B 1.6 
*END

*D_NET *146 0.00801478
*CONN
*I *1426:C I *D sky130_fd_sc_hd__and3_2
*I *1403:B I *D sky130_fd_sc_hd__xnor2_4
*I *1402:Y O *D sky130_fd_sc_hd__xnor2_4
*CAP
1 *1426:C 0.000481854
2 *1403:B 0.00046203
3 *1402:Y 0.000393808
4 *146:12 0.00133769
5 *1403:B *192:30 0.00039175
6 *1403:B *205:53 7.31897e-05
7 *1426:C *1426:B 0.000180376
8 *1426:C *170:18 0.000662817
9 *146:12 *170:18 0.000486719
10 *146:12 *178:12 0.000662703
11 *1410:A2 *1426:C 8.40269e-05
12 *1426:A *1426:C 3.2669e-05
13 *1502:A2 *1426:C 0.000136884
14 *1521:A3 *146:12 0.000160673
15 *1552:C *146:12 0.00066437
16 *46:12 *1403:B 0.00119798
17 *49:55 *1403:B 6.71803e-06
18 *49:71 *1403:B 6.57439e-05
19 *102:28 *1403:B 0.000140029
20 *131:48 *1426:C 0.000119762
21 *132:18 *1403:B 0.000137777
22 *136:108 *1426:C 0.00013521
*RES
1 *1402:Y *146:12 17.945 
2 *146:12 *1403:B 19.985 
3 *146:12 *1426:C 16.805 
*END

*D_NET *147 0.0144484
*CONN
*I *1415:A I *D sky130_fd_sc_hd__xor2_2
*I *1414:A I *D sky130_fd_sc_hd__nand2_2
*I *1403:Y O *D sky130_fd_sc_hd__xnor2_4
*CAP
1 *1415:A 0.000694225
2 *1414:A 6.18617e-05
3 *1403:Y 8.35382e-05
4 *147:25 0.00465046
5 *147:10 0.00410163
6 *1414:A *181:18 0.000119756
7 *1415:A *1413:A3 4.63425e-05
8 *1415:A *1413:B1 1.08056e-05
9 *1415:A *1415:B 0.000994423
10 *1415:A *1418:A 0.000496728
11 *1415:A *148:22 0
12 *1415:A *148:24 0
13 *147:10 *1502:C1 0.00013521
14 *147:10 *177:28 0.00013521
15 *147:25 *1413:B1 0.000119975
16 *147:25 *1436:A 0.000558742
17 *147:25 *1449:C 0.00012644
18 *147:25 *1482:A3 0.000157551
19 *147:25 *1502:C1 0.000314158
20 *147:25 *177:28 0.000305627
21 *147:25 *228:78 0.000518564
22 *1458:A1 *147:25 0.000145683
23 *1459:C *1415:A 0.000441812
24 *39:22 *147:25 2.01259e-05
25 *91:14 *147:25 0.000209524
*RES
1 *1403:Y *147:10 5.685 
2 *147:10 *1414:A 4.74 
3 *147:10 *147:25 49.25 
4 *147:25 *1415:A 24.14 
*END

*D_NET *148 0.0323625
*CONN
*I *1518:A2 I *D sky130_fd_sc_hd__o211ai_2
*I *1421:A I *D sky130_fd_sc_hd__nand2_2
*I *1419:B I *D sky130_fd_sc_hd__and4_2
*I *1416:A I *D sky130_fd_sc_hd__nand2_1
*I *1520:A1 I *D sky130_fd_sc_hd__o21ai_2
*I *1519:A2 I *D sky130_fd_sc_hd__a31o_1
*I *1413:A1 I *D sky130_fd_sc_hd__a31o_2
*I *1524:B2 I *D sky130_fd_sc_hd__a22o_1
*I *1460:A I *D sky130_fd_sc_hd__or2b_1
*I *1521:A2 I *D sky130_fd_sc_hd__a31o_1
*I *1404:X O *D sky130_fd_sc_hd__clkbuf_4
*CAP
1 *1518:A2 0.000153116
2 *1421:A 0.00109975
3 *1419:B 0.000115353
4 *1416:A 0.000163376
5 *1520:A1 1.89564e-05
6 *1519:A2 8.59186e-05
7 *1413:A1 0.00020847
8 *1524:B2 1.70954e-05
9 *1460:A 0
10 *1521:A2 0.000365568
11 *1404:X 0.00020102
12 *148:79 0.000294389
13 *148:46 0.00194974
14 *148:30 0.00224891
15 *148:24 0.000951338
16 *148:22 0.000359725
17 *148:20 0.00133271
18 *148:14 0.0018231
19 *148:12 0.0024639
20 *148:8 0.0011428
21 *1413:A1 *1415:B 3.64998e-06
22 *1413:A1 *204:8 9.92166e-05
23 *1416:A *1418:A 6.69608e-06
24 *1421:A *1432:A 8.17646e-05
25 *1421:A *1520:A2 0.000232105
26 *1421:A *172:24 9.26606e-05
27 *1421:A *197:35 0.000352965
28 *1421:A *202:35 0.000124667
29 *1518:A2 *225:103 8.46619e-05
30 *1521:A2 *211:24 0.000160635
31 *148:8 *149:48 0.000154081
32 *148:12 *1471:A2 4.32695e-05
33 *148:12 *175:28 0.000374253
34 *148:12 *199:42 1.82476e-05
35 *148:12 *225:103 9.14049e-05
36 *148:14 *202:35 0.000536567
37 *148:20 *1418:A 0
38 *148:20 *1420:B 0.000339419
39 *148:20 *162:14 4.08514e-05
40 *148:20 *202:35 0.000767839
41 *148:24 *1555:A1 9.19583e-05
42 *148:24 *204:27 0.000277566
43 *148:30 *1413:B1 0
44 *148:30 *1513:A2 1.92979e-05
45 *148:30 *1555:A1 0.00103756
46 *148:30 *181:87 0.000516752
47 *148:30 *229:20 0.000130512
48 *148:46 *1418:B 8.07659e-05
49 *148:46 *1432:A 0.000215059
50 *148:46 *1502:A1 0.000190712
51 *148:46 *164:23 0.000152008
52 *148:46 *171:20 0.000216668
53 *148:46 *199:31 0.00109309
54 *1386:B *148:12 0.000500901
55 *1394:B *1518:A2 8.65905e-05
56 *1415:A *148:22 0
57 *1415:A *148:24 0
58 *1416:B *1416:A 7.18771e-05
59 *1416:B *1520:A1 8.41307e-05
60 *1419:A *1419:B 6.61657e-05
61 *1459:B *1524:B2 2.49909e-05
62 *1459:B *148:30 0.000141874
63 *1459:C *1413:A1 4.91952e-05
64 *1459:C *148:30 0
65 *1460:B_N *148:46 2.76356e-05
66 *1471:A1 *148:12 0.00144447
67 *1483:B *1419:B 3.13447e-05
68 *1488:B1 *1518:A2 9.05588e-05
69 *1495:B *1518:A2 2.97004e-06
70 *1495:B *148:12 0.000145755
71 *1505:A2 *1521:A2 4.15752e-05
72 *1518:B1 *1518:A2 1.82476e-05
73 *1518:B1 *148:12 5.26479e-05
74 *1519:A1 *1413:A1 1.31944e-05
75 *1519:A1 *1519:A2 8.63511e-05
76 *1519:B1 *1519:A2 1.91597e-05
77 *1521:B1 *1521:A2 0.000162311
78 *1524:A2 *1524:B2 1.91597e-05
79 *1524:A2 *148:30 0.000145865
80 *1538:C1 *148:12 0.000102863
81 *1551:B *148:46 0.000442646
82 *31:14 *1419:B 0.000155928
83 *33:16 *148:30 0.00022436
84 *33:16 *148:46 0.000830353
85 *39:22 *148:30 0
86 *53:76 *1521:A2 4.08277e-05
87 *63:10 *1521:A2 0.000952967
88 *98:12 *148:12 0.000134468
89 *107:12 *1521:A2 0.000954634
90 *107:12 *148:46 0.00069136
91 *121:10 *148:20 5.02217e-05
92 *121:10 *148:22 3.9442e-05
93 *121:10 *148:24 9.54732e-05
94 *129:10 *148:12 0.000171988
95 *129:36 *148:12 0.000919953
96 *131:95 *148:30 0.000480579
97 *131:125 *1416:A 3.68265e-05
98 *131:125 *1520:A1 8.41307e-05
99 *133:164 *1518:A2 0
100 *137:112 *1421:A 4.36573e-06
*RES
1 *1404:X *148:8 6.12 
2 *148:8 *148:12 28.37 
3 *148:12 *148:14 9.075 
4 *148:14 *148:20 20.135 
5 *148:20 *148:22 0.87 
6 *148:22 *148:24 6.48 
7 *148:24 *148:30 21.095 
8 *148:30 *148:46 43.91 
9 *148:46 *1521:A2 19.715 
10 *148:46 *1460:A 1.6 
11 *148:30 *1524:B2 2.05 
12 *148:24 *148:79 2 
13 *148:79 *1413:A1 5.755 
14 *148:79 *1519:A2 3.1 
15 *148:22 *1520:A1 4.395 
16 *148:20 *1416:A 6.15 
17 *148:14 *1419:B 8.255 
18 *148:12 *1421:A 20.315 
19 *148:8 *1518:A2 7.05 
*END

*D_NET *149 0.0475952
*CONN
*I *1493:A I *D sky130_fd_sc_hd__nand3_2
*I *1428:B I *D sky130_fd_sc_hd__nand2_2
*I *1548:A1 I *D sky130_fd_sc_hd__a311o_1
*I *1421:B I *D sky130_fd_sc_hd__nand2_2
*I *1545:A1 I *D sky130_fd_sc_hd__a21oi_1
*I *1426:B I *D sky130_fd_sc_hd__and3_2
*I *1546:A1 I *D sky130_fd_sc_hd__o22a_1
*I *1494:A1 I *D sky130_fd_sc_hd__a21o_1
*I *1466:A I *D sky130_fd_sc_hd__xnor2_2
*I *1413:A2 I *D sky130_fd_sc_hd__a31o_2
*I *1405:X O *D sky130_fd_sc_hd__buf_4
*CAP
1 *1493:A 0.000591887
2 *1428:B 0
3 *1548:A1 0.00104815
4 *1421:B 0.000346723
5 *1545:A1 0
6 *1426:B 0.00137275
7 *1546:A1 0.000390997
8 *1494:A1 0
9 *1466:A 0.000448125
10 *1413:A2 0.000738268
11 *1405:X 0
12 *149:120 0.00139488
13 *149:87 0.00238135
14 *149:73 0.00194521
15 *149:67 0.00225433
16 *149:63 0.0013017
17 *149:61 0.00127777
18 *149:48 0.00184996
19 *149:16 0.00231191
20 *149:4 0.00266457
21 *1413:A2 *1415:B 3.21182e-05
22 *1413:A2 *157:12 0.000111921
23 *1413:A2 *204:8 3.1562e-06
24 *1421:B *150:16 0.000459116
25 *1421:B *196:95 0
26 *1426:B *1410:A3 0.000817876
27 *1426:B *1417:B 0.000707631
28 *1426:B *177:28 7.23533e-05
29 *1426:B *204:46 3.23391e-05
30 *1493:A *1581:A 0.000964161
31 *1493:A *155:20 0.000235636
32 *1546:A1 *158:49 4.07466e-06
33 *1546:A1 *176:24 0.000275923
34 *1546:A1 *226:48 7.9642e-06
35 *1548:A1 *1548:A3 1.25877e-05
36 *1548:A1 *150:16 0.00062104
37 *1548:A1 *187:24 8.00424e-05
38 *1548:A1 *196:95 0
39 *149:16 *1418:A 0.000103964
40 *149:16 *1523:B1 0.00121128
41 *149:48 *1404:A 8.65961e-05
42 *149:48 *1506:B 0.000140403
43 *149:48 *225:103 0.000671776
44 *149:63 *1448:A 0
45 *149:63 *155:20 0
46 *149:63 *172:16 7.47215e-05
47 *149:63 *192:10 0
48 *149:67 *1448:A 0
49 *149:67 *1472:A1 0.000154957
50 *149:67 *1472:A2 0.000138266
51 *149:67 *1512:B1 0.000146318
52 *149:67 *1517:B 5.93588e-05
53 *149:67 *172:16 2.23485e-05
54 *149:67 *186:59 0.000273324
55 *149:67 *194:18 0
56 *149:67 *224:23 0.00021594
57 *149:73 *1442:B 9.81542e-06
58 *149:73 *1445:A1 0.0013895
59 *149:73 *1472:A1 6.91036e-05
60 *149:73 *166:12 0.000790522
61 *149:73 *204:38 5.51172e-05
62 *149:87 *1545:B1 2.92603e-05
63 *149:87 *1581:A 0.000129735
64 *149:87 *176:24 0.000556409
65 *149:87 *186:24 8.21029e-05
66 *149:87 *188:81 2.25106e-05
67 *1410:A2 *1426:B 1.91597e-05
68 *1426:A *1426:B 6.07575e-06
69 *1426:C *1426:B 0.000180376
70 *1427:B *149:73 2.5571e-05
71 *1466:B *1413:A2 0.00188192
72 *1466:B *1466:A 0.000961847
73 *1480:B *1548:A1 0
74 *1488:B1 *149:61 0
75 *1488:B1 *149:63 0
76 *1490:C1 *1421:B 0
77 *1490:C1 *1426:B 8.53113e-06
78 *1492:A1 *149:63 0
79 *1492:A1 *149:67 0.000137313
80 *1493:B *149:61 0.00153638
81 *1493:C *1493:A 6.50242e-05
82 *1494:B1 *1493:A 0.000178225
83 *1494:B1 *149:48 3.30597e-05
84 *1494:B1 *149:61 0.00157767
85 *1503:B1 *149:87 0.000220598
86 *1514:C1 *149:87 3.16217e-05
87 *1518:A1 *1493:A 7.91885e-05
88 *1523:B2 *1413:A2 0.00037511
89 *1545:A2 *149:73 2.49909e-05
90 *1551:A *1421:B 6.10955e-05
91 *1551:A *149:73 6.80075e-05
92 *1551:B *149:73 9.65478e-06
93 *1551:B *149:87 5.09835e-06
94 *1552:C *149:73 5.23435e-05
95 *46:12 *149:73 5.47322e-05
96 *49:12 *149:73 0.000104708
97 *63:10 *1426:B 8.49205e-05
98 *66:14 *1493:A 0.000161958
99 *78:22 *149:61 0.000261942
100 *78:22 *149:67 0.000129951
101 *114:12 *1546:A1 0.00121164
102 *114:12 *149:87 0.000652528
103 *116:20 *1548:A1 5.93601e-05
104 *131:60 *149:73 0.000290857
105 *131:125 *1413:A2 0.00112228
106 *133:164 *149:48 0.000164338
107 *133:164 *149:61 9.27255e-06
108 *136:69 *149:67 7.5416e-05
109 *136:73 *149:67 0.000612067
110 *136:73 *149:73 3.86814e-05
111 *137:28 *1546:A1 0.00118744
112 *137:28 *149:87 4.44927e-05
113 *137:43 *1426:B 0.000273819
114 *141:10 *1421:B 5.93673e-05
115 *142:94 *1548:A1 0.000112649
116 *148:8 *149:48 0.000154081
*RES
1 *1405:X *149:4 1.6 
2 *149:4 *149:16 26.68 
3 *149:16 *1413:A2 28.835 
4 *149:16 *1466:A 11.02 
5 *149:4 *149:48 27.165 
6 *149:48 *1494:A1 1.6 
7 *149:48 *149:61 17.8625 
8 *149:61 *149:63 5.5875 
9 *149:63 *149:67 22.1025 
10 *149:67 *149:73 30.3275 
11 *149:73 *149:87 12.9507 
12 *149:87 *1546:A1 18.24 
13 *149:87 *1426:B 29.725 
14 *149:73 *1545:A1 1.6 
15 *149:67 *149:120 0.5 
16 *149:120 *1421:B 5.5797 
17 *149:120 *1548:A1 7.1039 
18 *149:63 *1428:B 3.6 
19 *149:61 *1493:A 10.9922 
*END

*D_NET *150 0.0226575
*CONN
*I *1411:A1 I *D sky130_fd_sc_hd__a21o_1
*I *1412:A I *D sky130_fd_sc_hd__and3_1
*I *1406:X O *D sky130_fd_sc_hd__or3_4
*CAP
1 *1411:A1 0.00104983
2 *1412:A 0.00061605
3 *1406:X 0.00341202
4 *150:16 0.00507791
5 *1411:A1 *1411:A2 0.000991534
6 *1411:A1 *1411:B1 5.83121e-06
7 *1411:A1 *154:21 1.89469e-05
8 *1411:A1 *187:24 0.000152896
9 *1412:A *189:12 0.00165722
10 *150:16 *1432:A 0.000187054
11 *150:16 *1520:A2 0.00223641
12 *150:16 *175:28 1.16465e-05
13 *1421:B *150:16 0.000459116
14 *1463:B *1411:A1 4.28483e-05
15 *1480:B *150:16 4.3155e-05
16 *1488:A1 *150:16 0.00114675
17 *1494:B1 *1411:A1 8.65905e-05
18 *1504:B1 *150:16 0
19 *1548:A1 *150:16 0.00062104
20 *45:23 *1411:A1 0.00136056
21 *45:23 *1412:A 1.79536e-05
22 *45:29 *1412:A 0.00205984
23 *47:43 *1412:A 0.000118302
24 *49:55 *150:16 0.000249535
25 *66:14 *1411:A1 0.000994395
26 *98:12 *150:16 4.00949e-05
27 *134:12 *1412:A 0
28 *134:23 *1411:A1 0
29 *134:23 *1412:A 0
*RES
1 *1406:X *150:16 30.1211 
2 *150:16 *1412:A 28.0575 
3 *150:16 *1411:A1 33.1875 
*END

*D_NET *151 0.0158943
*CONN
*I *1411:A2 I *D sky130_fd_sc_hd__a21o_1
*I *1412:B I *D sky130_fd_sc_hd__and3_1
*I *1407:Y O *D sky130_fd_sc_hd__o21ai_2
*CAP
1 *1411:A2 0.00031697
2 *1412:B 4.16082e-05
3 *1407:Y 0.00074767
4 *151:39 0.00148937
5 *151:22 0.00196168
6 *1411:A2 *1411:B1 4.35752e-06
7 *1411:A2 *154:21 0.000969019
8 *151:22 *1469:A 0.000377638
9 *151:22 *154:10 0.000245192
10 *151:22 *228:51 0.00042152
11 *151:39 *154:10 0.000117878
12 *151:39 *154:21 0.00343986
13 *151:39 *156:14 0.000110785
14 *151:39 *196:68 0.00179889
15 *151:39 *196:95 0.000326044
16 *1401:B1_N *151:22 7.51418e-05
17 *1407:A2 *151:22 4.77769e-05
18 *1411:A1 *1411:A2 0.000991534
19 *1489:A *151:22 7.1301e-06
20 *1502:A2 *1412:B 1.56428e-05
21 *1508:B *151:22 0.00092195
22 *1540:B1 *151:22 8.85746e-05
23 *45:21 *151:39 4.41506e-05
24 *46:12 *151:22 0.000191107
25 *59:8 *151:22 0.000222446
26 *143:10 *151:39 0.00050699
27 *143:30 *151:22 6.53055e-05
28 *143:30 *151:39 0.00034812
*RES
1 *1407:Y *151:22 27.76 
2 *151:22 *1412:B 4.05 
3 *151:22 *151:39 46.975 
4 *151:39 *1411:A2 15.5775 
*END

*D_NET *152 0.0132191
*CONN
*I *1410:A3 I *D sky130_fd_sc_hd__a31o_1
*I *1417:B I *D sky130_fd_sc_hd__and2b_1
*I *1408:X O *D sky130_fd_sc_hd__a22o_1
*CAP
1 *1410:A3 0.000455972
2 *1417:B 0.00164606
3 *1408:X 0.000625155
4 *152:16 0.00272719
5 *1410:A3 *154:10 2.39856e-05
6 *1417:B *1417:A_N 0.000104162
7 *1417:B *161:8 2.75668e-05
8 *152:16 *1408:A1 2.23485e-05
9 *152:16 *1542:B 0.000564706
10 *152:16 *158:14 0.000147615
11 *152:16 *220:22 0.000646314
12 *1426:A *1410:A3 2.49909e-05
13 *1426:B *1410:A3 0.000817876
14 *1426:B *1417:B 0.000707631
15 *1455:B1 *152:16 4.66108e-05
16 *1467:A *1417:B 0.000706014
17 *1467:B *1417:B 0.000155497
18 *1490:B1 *1410:A3 0.000230069
19 *1529:B *1417:B 0.00029933
20 *1538:A1 *152:16 4.43871e-06
21 *1552:C *152:16 1.14559e-05
22 *35:61 *152:16 0.000640377
23 *41:10 *1417:B 8.49205e-05
24 *63:10 *1410:A3 0.000438323
25 *63:10 *1417:B 0.00099787
26 *99:14 *1417:B 0.000134118
27 *135:22 *152:16 0.000790191
28 *135:32 *152:16 3.05366e-05
29 *137:43 *1417:B 8.34281e-06
30 *141:28 *152:16 9.94386e-05
*RES
1 *1408:X *152:16 25.58 
2 *152:16 *1417:B 35.53 
3 *152:16 *1410:A3 13.435 
*END

*D_NET *153 0.0184957
*CONN
*I *1410:B1 I *D sky130_fd_sc_hd__a31o_1
*I *1417:A_N I *D sky130_fd_sc_hd__and2b_1
*I *1409:X O *D sky130_fd_sc_hd__and4_1
*CAP
1 *1410:B1 0.000827893
2 *1417:A_N 0.000965706
3 *1409:X 0.000964081
4 *153:12 0.00275768
5 *1410:B1 *1410:A1 0.00284829
6 *1410:B1 *1465:A2 0.00120792
7 *1417:A_N *1410:A1 0.000195859
8 *1417:A_N *1422:A_N 0.000155497
9 *1417:A_N *1465:A2 0.00095286
10 *1417:A_N *1556:A1 0.00018955
11 *1417:A_N *161:8 0.000153816
12 *1417:A_N *201:33 0.000134516
13 *1417:A_N *206:35 0.000157276
14 *1417:A_N *225:74 0.000268051
15 *153:12 *1397:A 4.66108e-05
16 *153:12 *1431:A1 0.000134556
17 *153:12 *169:10 1.7635e-05
18 *153:12 *195:20 0.000189483
19 *153:12 *211:56 0.000855266
20 *153:12 *230:41 3.83194e-05
21 *1417:B *1417:A_N 0.000104162
22 *1458:A1 *153:12 0.000648041
23 *1461:B *153:12 0.000372521
24 *1495:B *153:12 0.000119184
25 *1502:A2 *1410:B1 1.07797e-05
26 *1508:B *1410:B1 4.82553e-05
27 *1528:B *153:12 0.00193212
28 *1559:A3 *1417:A_N 0.000642759
29 *30:10 *153:12 0.000429219
30 *55:14 *153:12 6.59891e-05
31 *66:36 *153:12 0.000175493
32 *68:10 *153:12 1.38676e-05
33 *91:26 *1417:A_N 0.000132842
34 *95:28 *1417:A_N 0.000153816
35 *136:100 *1410:B1 0.000585765
*RES
1 *1409:X *153:12 37.19 
2 *153:12 *1417:A_N 29.3 
3 *153:12 *1410:B1 33.56 
*END

*D_NET *154 0.0123722
*CONN
*I *1411:B1 I *D sky130_fd_sc_hd__a21o_1
*I *1412:C I *D sky130_fd_sc_hd__and3_1
*I *1410:X O *D sky130_fd_sc_hd__a31o_1
*CAP
1 *1411:B1 6.11852e-05
2 *1412:C 1.35516e-05
3 *1410:X 0.000204877
4 *154:21 0.00141706
5 *154:10 0.0015743
6 *1412:C *183:22 1.70906e-05
7 *154:21 *155:20 0
8 *1410:A3 *154:10 2.39856e-05
9 *1411:A1 *1411:B1 5.83121e-06
10 *1411:A1 *154:21 1.89469e-05
11 *1411:A2 *1411:B1 4.35752e-06
12 *1411:A2 *154:21 0.000969019
13 *1489:A *154:10 0.000134516
14 *1490:B1 *154:10 4.82863e-05
15 *1494:B1 *1411:B1 3.09088e-05
16 *45:23 *154:21 0.00137114
17 *45:29 *154:10 0.00020026
18 *45:29 *154:21 0.00204055
19 *143:10 *154:21 0.00031065
20 *143:30 *154:21 0.000122765
21 *151:22 *154:10 0.000245192
22 *151:39 *154:10 0.000117878
23 *151:39 *154:21 0.00343986
*RES
1 *1410:X *154:10 8.925 
2 *154:10 *1412:C 3.765 
3 *154:10 *154:21 52.38 
4 *154:21 *1411:B1 4.755 
*END

*D_NET *155 0.0271206
*CONN
*I *1422:B I *D sky130_fd_sc_hd__and2b_2
*I *1413:A3 I *D sky130_fd_sc_hd__a31o_2
*I *1411:X O *D sky130_fd_sc_hd__a21o_1
*CAP
1 *1422:B 0.00209946
2 *1413:A3 0.00237908
3 *1411:X 0.0048277
4 *155:20 0.00930624
5 *1413:A3 *1430:A 3.70537e-05
6 *1413:A3 *1591:A 0.000105681
7 *1413:A3 *157:12 3.10059e-05
8 *1413:A3 *195:20 4.24562e-05
9 *1413:A3 *223:10 0.000192488
10 *1413:A3 *230:18 2.76356e-05
11 *1422:B *1404:A 0.000428525
12 *1422:B *1430:A 0.00102444
13 *1422:B *173:12 0.000109931
14 *1422:B *184:20 8.33066e-06
15 *1422:B *211:24 6.33291e-05
16 *155:20 *1399:B1 0.000216751
17 *155:20 *1430:A 0.000128055
18 *155:20 *1431:A1 0.000438744
19 *155:20 *1432:A 0.000746034
20 *155:20 *1448:B 0.000159935
21 *155:20 *1455:A2 8.28992e-05
22 *155:20 *1471:A2 0.00026409
23 *155:20 *1581:A 0.000470347
24 *155:20 *167:24 0.000158607
25 *155:20 *168:16 4.21127e-05
26 *155:20 *172:24 0.000105665
27 *155:20 *185:10 0.000250388
28 *1399:A1 *155:20 0.000131856
29 *1415:A *1413:A3 4.63425e-05
30 *1458:A1 *1413:A3 4.01535e-05
31 *1461:A_N *1422:B 0.000131581
32 *1461:B *1422:B 0.000146361
33 *1471:A1 *155:20 0.000107869
34 *1471:B1 *155:20 0.000259269
35 *1493:A *155:20 0.000235636
36 *1495:B *1422:B 0.000229167
37 *1495:B *155:20 0
38 *1521:A3 *155:20 4.21127e-05
39 *1538:C1 *155:20 0.000389618
40 *40:33 *1413:A3 0.000123508
41 *45:21 *155:20 0.000163304
42 *66:36 *1422:B 0.000351472
43 *66:36 *155:20 2.7802e-05
44 *69:14 *1422:B 0.000374613
45 *78:22 *155:20 0.000112713
46 *109:18 *1413:A3 8.24095e-05
47 *137:112 *155:20 0.000200571
48 *137:131 *155:20 0.000177213
49 *149:63 *155:20 0
50 *154:21 *155:20 0
*RES
1 *1411:X *155:20 16.4896 
2 *155:20 *1413:A3 34.0929 
3 *155:20 *1422:B 11.0624 
*END

*D_NET *156 0.0186202
*CONN
*I *1413:B1 I *D sky130_fd_sc_hd__a31o_2
*I *1422:A_N I *D sky130_fd_sc_hd__and2b_2
*I *1412:X O *D sky130_fd_sc_hd__and3_1
*CAP
1 *1413:B1 0.0025501
2 *1422:A_N 0.000569905
3 *1412:X 0.000879056
4 *156:14 0.00399906
5 *1413:B1 *1436:A 5.09024e-05
6 *1413:B1 *1449:C 0.000103738
7 *1413:B1 *1502:A1 0.000220042
8 *1413:B1 *179:20 6.33103e-05
9 *1413:B1 *181:8 0.000371529
10 *1413:B1 *181:70 0.000191883
11 *1413:B1 *195:20 0.00108845
12 *1413:B1 *209:16 8.21139e-05
13 *1422:A_N *1430:A 0.000202939
14 *1422:A_N *1452:B 0.000119762
15 *1422:A_N *1465:A2 0.000153816
16 *1422:A_N *1502:A1 0.000112589
17 *1422:A_N *179:46 3.22622e-05
18 *1422:A_N *184:20 0.000112151
19 *1422:A_N *195:20 0.000191665
20 *156:14 *1456:A 0.00077025
21 *156:14 *193:56 0.00018955
22 *156:14 *205:21 0.00211561
23 *156:14 *205:34 0.000108375
24 *156:14 *205:53 0.000290073
25 *1415:A *1413:B1 1.08056e-05
26 *1417:A_N *1422:A_N 0.000155497
27 *1458:A1 *1413:B1 7.70758e-05
28 *1459:C *1413:B1 0.000280838
29 *1461:B *1422:A_N 0.000209105
30 *1526:B1 *1422:A_N 0.000786386
31 *30:10 *156:14 0.000922034
32 *39:22 *1413:B1 1.16578e-05
33 *69:14 *1413:B1 0.000128577
34 *69:14 *1422:A_N 1.23622e-05
35 *91:14 *1413:B1 0.000138473
36 *95:28 *1422:A_N 0.00013521
37 *112:10 *1422:A_N 0.000841504
38 *143:30 *156:14 0.000110785
39 *147:25 *1413:B1 0.000119975
40 *148:30 *1413:B1 0
41 *151:39 *156:14 0.000110785
*RES
1 *1412:X *156:14 34.96 
2 *156:14 *1422:A_N 25.93 
3 *156:14 *1413:B1 46.75 
*END

*D_NET *157 0.012016
*CONN
*I *1415:B I *D sky130_fd_sc_hd__xor2_2
*I *1414:B I *D sky130_fd_sc_hd__nand2_2
*I *1413:X O *D sky130_fd_sc_hd__a31o_2
*CAP
1 *1415:B 0.000542219
2 *1414:B 0.00254696
3 *1413:X 0
4 *157:12 0.00289905
5 *157:4 0.000894311
6 *1414:B *158:14 4.66826e-05
7 *1414:B *181:18 0.000930817
8 *1415:B *204:8 0.00016031
9 *157:12 *204:8 4.77757e-05
10 *157:12 *206:87 0.000310703
11 *1413:A1 *1415:B 3.64998e-06
12 *1413:A2 *1415:B 3.21182e-05
13 *1413:A2 *157:12 0.000111921
14 *1413:A3 *157:12 3.10059e-05
15 *1415:A *1415:B 0.000994423
16 *1466:B *157:12 2.86895e-05
17 *1484:B *157:12 0.000210839
18 *1560:B *1414:B 0.00208904
19 *70:22 *1414:B 0.000135468
*RES
1 *1413:X *157:4 1.6 
2 *157:4 *157:12 12.715 
3 *157:12 *1414:B 45.55 
4 *157:4 *1415:B 17.32 
*END

*D_NET *158 0.0230714
*CONN
*I *1434:A I *D sky130_fd_sc_hd__and3_1
*I *1433:A1 I *D sky130_fd_sc_hd__a21oi_2
*I *1496:A1 I *D sky130_fd_sc_hd__a21o_1
*I *1414:Y O *D sky130_fd_sc_hd__nand2_2
*CAP
1 *1434:A 9.36814e-05
2 *1433:A1 0.00245086
3 *1496:A1 0.000726989
4 *1414:Y 0.000780796
5 *158:49 0.00404619
6 *158:14 0.00300943
7 *1433:A1 *1433:A2 0.00343195
8 *1433:A1 *1434:C 0
9 *1433:A1 *1536:B1 0.000210925
10 *1434:A *1542:B 0.00018695
11 *1496:A1 *1469:B 0.000996787
12 *158:14 *1469:B 0.000294162
13 *158:14 *181:18 1.34503e-05
14 *158:49 *1446:B2 5.36384e-06
15 *158:49 *1455:A1 0.000534815
16 *158:49 *1542:B 0.000308719
17 *158:49 *1559:A1 5.61451e-05
18 *158:49 *1581:A 2.3038e-05
19 *158:49 *176:24 0.000125244
20 *158:49 *176:28 0.000224249
21 *158:49 *220:20 8.15318e-05
22 *158:49 *220:22 0
23 *158:49 *226:48 5.1985e-06
24 *1408:B2 *158:49 9.86169e-05
25 *1414:B *158:14 4.66826e-05
26 *1461:C *158:49 7.06865e-05
27 *1487:A *158:14 0.000162227
28 *1509:A2 *158:49 0.00031573
29 *1521:A3 *158:49 0.00014009
30 *1546:A1 *158:49 4.07466e-06
31 *1551:A *158:14 0.000539346
32 *1552:C *158:14 4.0439e-05
33 *1559:A3 *158:49 0.000191232
34 *1560:C *158:49 8.40269e-05
35 *35:71 *158:14 1.63586e-05
36 *104:26 *158:49 0.000344739
37 *130:67 *158:49 5.86132e-05
38 *130:89 *158:49 2.05056e-05
39 *135:32 *158:14 0.000860746
40 *137:28 *158:49 0.000687329
41 *141:28 *158:14 0.00133546
42 *142:123 *158:49 0.000300436
43 *152:16 *158:14 0.000147615
*RES
1 *1414:Y *158:14 27.815 
2 *158:14 *1496:A1 11.02 
3 *158:14 *158:49 42.41 
4 *158:49 *1433:A1 41.57 
5 *158:49 *1434:A 3.43 
*END

*D_NET *159 0.0100759
*CONN
*I *1424:C I *D sky130_fd_sc_hd__nand3_4
*I *1556:B1 I *D sky130_fd_sc_hd__a21o_1
*I *1415:X O *D sky130_fd_sc_hd__xor2_2
*CAP
1 *1424:C 0.000684853
2 *1556:B1 0.000970154
3 *1415:X 0.000283282
4 *159:8 0.00193829
5 *1424:C *1424:B 0.000285363
6 *1424:C *162:14 0.000893238
7 *1424:C *203:31 0.000140639
8 *1556:B1 *1420:B 1.88904e-05
9 *1556:B1 *1534:A2 0.00117463
10 *1556:B1 *162:14 0.000312771
11 *1556:B1 *163:12 1.79098e-05
12 *1556:B1 *163:14 0.00124285
13 *1556:B1 *202:35 0.000112123
14 *1406:A *1556:B1 0
15 *1498:B *1556:B1 0
16 *1514:C1 *1556:B1 0.000521896
17 *1516:A2 *1424:C 4.52215e-05
18 *1516:A3 *1424:C 1.13178e-05
19 *1549:A2 *1424:C 0.000135795
20 *1549:A2 *1556:B1 0.000490875
21 *1554:A_N *1424:C 0
22 *1554:A_N *1556:B1 0.000331888
23 *33:16 *1556:B1 7.03219e-05
24 *131:76 *1556:B1 0.000343646
25 *131:125 *1556:B1 4.99487e-05
*RES
1 *1415:X *159:8 7.155 
2 *159:8 *1556:B1 36.09 
3 *159:8 *1424:C 20.28 
*END

*D_NET *160 0.00417453
*CONN
*I *1418:A I *D sky130_fd_sc_hd__xnor2_2
*I *1416:Y O *D sky130_fd_sc_hd__nand2_1
*CAP
1 *1418:A 0.00145733
2 *1416:Y 0.00145733
3 *1418:A *1392:A 0
4 *1418:A *1523:B1 0.000181006
5 *1415:A *1418:A 0.000496728
6 *1416:A *1418:A 6.69608e-06
7 *1516:A1 *1418:A 0.000390581
8 *87:14 *1418:A 6.81394e-05
9 *121:10 *1418:A 0
10 *131:125 *1418:A 1.27575e-05
11 *148:20 *1418:A 0
12 *149:16 *1418:A 0.000103964
*RES
1 *1416:Y *1418:A 33.6 
*END

*D_NET *161 0.0093995
*CONN
*I *1418:B I *D sky130_fd_sc_hd__xnor2_2
*I *1417:X O *D sky130_fd_sc_hd__and2b_1
*CAP
1 *1418:B 0.0013749
2 *1417:X 0.000181231
3 *161:8 0.00155613
4 *1418:B *1424:B 0
5 *1418:B *1447:A2 0.000408862
6 *1418:B *164:23 0.000201857
7 *1418:B *201:23 0.000448307
8 *1418:B *201:27 0.000547426
9 *1417:A_N *161:8 0.000153816
10 *1417:B *161:8 2.75668e-05
11 *1497:A *1418:B 0.000177023
12 *1498:A *1418:B 0.000986423
13 *1498:B *1418:B 1.44259e-05
14 *1519:B1 *1418:B 0.000325277
15 *70:22 *1418:B 0.000877093
16 *91:26 *1418:B 0.00148459
17 *104:26 *1418:B 0.000352408
18 *143:58 *1418:B 0.0002014
19 *148:46 *1418:B 8.07659e-05
*RES
1 *1417:X *161:8 5.775 
2 *161:8 *1418:B 48.075 
*END

*D_NET *162 0.0169291
*CONN
*I *1534:A1 I *D sky130_fd_sc_hd__o21ai_1
*I *1420:A I *D sky130_fd_sc_hd__and2_2
*I *1418:Y O *D sky130_fd_sc_hd__xnor2_2
*CAP
1 *1534:A1 0.00122071
2 *1420:A 8.6476e-05
3 *1418:Y 0.000442317
4 *162:27 0.00163167
5 *162:14 0.000939756
6 *1420:A *1420:B 0.000342347
7 *1420:A *164:6 0.000193549
8 *1534:A1 *1481:B1 0.000198046
9 *1534:A1 *1534:A2 0.00356799
10 *1534:A1 *163:14 0.00016881
11 *1534:A1 *177:28 0.000164946
12 *162:14 *1420:B 0.00010978
13 *162:14 *1424:B 0.00115709
14 *162:14 *164:6 6.23539e-05
15 *162:14 *202:35 8.35068e-05
16 *162:27 *163:12 2.06083e-05
17 *162:27 *163:14 6.29778e-05
18 *162:27 *207:25 0.000421954
19 *162:27 *229:47 0.000211163
20 *1424:C *162:14 0.000893238
21 *1516:A1 *162:14 0.000121036
22 *1520:B1 *162:27 3.59902e-05
23 *1534:B1 *1534:A1 8.23457e-05
24 *1549:A2 *1534:A1 0.000813504
25 *1549:A2 *162:14 0.000222737
26 *1554:A_N *162:27 0.000167313
27 *1556:B1 *162:14 0.000312771
28 *87:14 *162:14 0.000121036
29 *91:14 *162:27 0.000827146
30 *103:12 *1534:A1 2.16833e-05
31 *109:18 *1534:A1 1.50624e-05
32 *109:18 *162:27 0.00018971
33 *109:30 *1534:A1 0.0019786
34 *148:20 *162:14 4.08514e-05
*RES
1 *1418:Y *162:14 22.7 
2 *162:14 *1420:A 4.81 
3 *162:14 *162:27 15.905 
4 *162:27 *1534:A1 49.905 
*END

*D_NET *163 0.0242704
*CONN
*I *1420:B I *D sky130_fd_sc_hd__and2_2
*I *1525:A_N I *D sky130_fd_sc_hd__and3b_1
*I *1534:A2 I *D sky130_fd_sc_hd__o21ai_1
*I *1419:X O *D sky130_fd_sc_hd__and4_2
*CAP
1 *1420:B 0.000164813
2 *1525:A_N 0.00187625
3 *1534:A2 0.00117454
4 *1419:X 0.00120065
5 *163:14 0.00343271
6 *163:12 0.00174738
7 *1420:B *164:6 3.04704e-05
8 *1525:A_N *181:70 0.00139191
9 *1534:A2 *1499:A 0.000759505
10 *1534:A2 *206:35 0.000423122
11 *163:12 *201:71 0.000596567
12 *163:12 *202:35 0.000139682
13 *1420:A *1420:B 0.000342347
14 *1485:B *1525:A_N 0.000569149
15 *1514:C1 *1525:A_N 8.23457e-05
16 *1520:B1 *163:14 0.000479568
17 *1534:A1 *1534:A2 0.00356799
18 *1534:A1 *163:14 0.00016881
19 *1549:A2 *1534:A2 0.000597628
20 *1549:A2 *163:14 0.000267876
21 *1554:A_N *1534:A2 3.69251e-05
22 *1554:A_N *163:12 4.11198e-05
23 *1556:B1 *1420:B 1.88904e-05
24 *1556:B1 *1534:A2 0.00117463
25 *1556:B1 *163:12 1.79098e-05
26 *1556:B1 *163:14 0.00124285
27 *91:14 *163:14 0.000225219
28 *95:28 *1525:A_N 0.00175577
29 *103:12 *1534:A2 0.000156656
30 *120:10 *1534:A2 5.43112e-05
31 *148:20 *1420:B 0.000339419
32 *162:14 *1420:B 0.00010978
33 *162:27 *163:12 2.06083e-05
34 *162:27 *163:14 6.29778e-05
*RES
1 *1419:X *163:12 18.6825 
2 *163:12 *163:14 14.7675 
3 *163:14 *1534:A2 47.1 
4 *163:14 *1525:A_N 38.67 
5 *163:12 *1420:B 8.7675 
*END

*D_NET *164 0.0200627
*CONN
*I *1539:A1 I *D sky130_fd_sc_hd__o21bai_1
*I *1544:A I *D sky130_fd_sc_hd__xor2_1
*I *1556:A1 I *D sky130_fd_sc_hd__a21o_1
*I *1424:B I *D sky130_fd_sc_hd__nand3_4
*I *1420:X O *D sky130_fd_sc_hd__and2_2
*CAP
1 *1539:A1 2.6898e-05
2 *1544:A 0.000767898
3 *1556:A1 0.000177047
4 *1424:B 0.000767661
5 *1420:X 0.000548336
6 *164:38 0.00113373
7 *164:23 0.00156045
8 *164:6 0.00236047
9 *1424:B *1424:A 0
10 *1544:A *1430:A 0.000107684
11 *1544:A *1452:B 0.00036732
12 *1544:A *1544:B 0.00034438
13 *1544:A *179:46 1.7635e-05
14 *1544:A *222:39 0
15 *1544:A *226:27 0.000381896
16 *1544:A *228:35 0.000257825
17 *1556:A1 *1465:A2 7.66388e-05
18 *1556:A1 *184:20 0.000219478
19 *164:6 *202:35 0.000119762
20 *164:23 *1447:A2 4.24818e-05
21 *164:23 *1535:B1 0.000558663
22 *164:23 *184:20 0.000132362
23 *164:23 *202:35 9.90522e-05
24 *1417:A_N *1556:A1 0.00018955
25 *1418:B *1424:B 0
26 *1418:B *164:23 0.000201857
27 *1420:A *164:6 0.000193549
28 *1420:B *164:6 3.04704e-05
29 *1424:C *1424:B 0.000285363
30 *1461:B *1544:A 0.000231181
31 *1498:B *1424:B 0.000264468
32 *1507:A2 *164:38 0.000535295
33 *1519:B1 *1424:B 0
34 *1519:B1 *164:23 0.000729583
35 *1524:A1 *164:23 0.00111946
36 *1539:A2 *1539:A1 8.23457e-05
37 *1539:A2 *164:38 0.00125257
38 *1558:B1 *1544:A 2.0187e-05
39 *1559:A3 *1556:A1 0.000334171
40 *55:14 *1539:A1 3.83194e-05
41 *55:14 *164:38 0.00017255
42 *66:36 *1544:A 0
43 *70:22 *164:23 0.000419741
44 *79:12 *1544:A 0.000118081
45 *95:28 *1544:A 0.000186845
46 *103:12 *1556:A1 0.000221145
47 *103:12 *164:23 2.14129e-05
48 *104:26 *164:23 0.00042311
49 *112:10 *1544:A 0.00139851
50 *143:58 *164:23 0.000153816
51 *148:46 *164:23 0.000152008
52 *162:14 *1424:B 0.00115709
53 *162:14 *164:6 6.23539e-05
*RES
1 *1420:X *164:6 8.26 
2 *164:6 *1424:B 25.34 
3 *164:6 *164:23 32.345 
4 *164:23 *1556:A1 9.465 
5 *164:23 *164:38 13.835 
6 *164:38 *1544:A 33.12 
7 *164:38 *1539:A1 2.395 
*END

*D_NET *165 0.00541793
*CONN
*I *1423:B I *D sky130_fd_sc_hd__xnor2_4
*I *1421:Y O *D sky130_fd_sc_hd__nand2_2
*CAP
1 *1423:B 0.000994009
2 *1421:Y 0.000994009
3 *1423:B *1423:A 2.10214e-05
4 *1423:B *1431:A1 2.76204e-05
5 *1423:B *1431:B1 0.00078689
6 *1423:B *1435:B 0.000335476
7 *1423:B *167:24 0.000316261
8 *1423:B *171:20 0.000154977
9 *1423:B *228:78 0.00139433
10 *130:51 *1423:B 0.000393342
*RES
1 *1421:Y *1423:B 32.145 
*END

*D_NET *166 0.0128888
*CONN
*I *1423:A I *D sky130_fd_sc_hd__xnor2_4
*I *1422:X O *D sky130_fd_sc_hd__and2b_2
*CAP
1 *1423:A 0.000722351
2 *1422:X 0.00214264
3 *166:12 0.00286499
4 *1423:A *1445:B1 8.49205e-05
5 *1423:A *228:78 0.00106897
6 *166:12 *1445:A1 0.00011774
7 *166:12 *183:170 0.00179967
8 *166:12 *204:38 4.33164e-05
9 *166:12 *228:51 1.89489e-05
10 *1423:B *1423:A 2.10214e-05
11 *1540:B1 *166:12 0.00102686
12 *46:12 *166:12 0.000337179
13 *78:22 *166:12 0.000300647
14 *131:60 *166:12 0.00154905
15 *149:73 *166:12 0.000790522
*RES
1 *1422:X *166:12 49.94 
2 *166:12 *1423:A 13.795 
*END

*D_NET *167 0.0322593
*CONN
*I *1424:A I *D sky130_fd_sc_hd__nand3_4
*I *1556:A2 I *D sky130_fd_sc_hd__a21o_1
*I *1544:B I *D sky130_fd_sc_hd__xor2_1
*I *1423:Y O *D sky130_fd_sc_hd__xnor2_4
*CAP
1 *1424:A 0.0023296
2 *1556:A2 0
3 *1544:B 0.00108795
4 *1423:Y 0.00342028
5 *167:34 0.00267389
6 *167:24 0.00733582
7 *1424:A *1535:B1 0.000265328
8 *1424:A *229:47 0.00014177
9 *1424:A *230:10 0.000104583
10 *1424:A *230:18 0.000224474
11 *1544:B *1452:B 0.000156754
12 *1544:B *226:14 0.00122343
13 *1544:B *226:27 0.00020127
14 *167:24 *1430:A 0.000473126
15 *167:24 *1431:A1 0.00047073
16 *167:24 *1455:A2 0.000981901
17 *167:24 *168:16 0.000602475
18 *167:24 *183:22 0.000150143
19 *167:24 *196:68 5.58515e-05
20 *167:24 *222:45 0.000743815
21 *167:34 *1400:A 0.000150601
22 *167:34 *1535:B1 0.000414711
23 *1406:A *1544:B 0.00123651
24 *1406:A *167:34 3.99339e-05
25 *1423:B *167:24 0.000316261
26 *1424:B *1424:A 0
27 *1480:B *167:34 0.000311548
28 *1504:B1 *167:24 0.000131861
29 *1513:B1 *167:24 7.66792e-05
30 *1515:A1 *167:24 0
31 *1516:A2 *1424:A 0.00010651
32 *1516:A2 *167:34 1.04079e-05
33 *1519:B1 *1424:A 0.000238213
34 *1524:A1 *167:34 0.000242702
35 *1544:A *1544:B 0.00034438
36 *1549:A2 *1424:A 0
37 *1549:A2 *1544:B 0.000291603
38 *1554:A_N *1544:B 0.000710323
39 *1554:A_N *167:34 3.22653e-05
40 *1558:B1 *1544:B 0.000711808
41 *40:14 *1424:A 0.000134366
42 *41:10 *1424:A 0.000248991
43 *53:32 *1424:A 0.00118006
44 *53:32 *167:34 0.000870739
45 *104:26 *1424:A 0.000120255
46 *104:26 *167:34 0.000225049
47 *120:10 *1544:B 0.000673791
48 *128:8 *167:34 0.000161833
49 *133:18 *1424:A 0.000106286
50 *133:20 *1424:A 0.000207134
51 *136:100 *167:24 2.59892e-05
52 *144:10 *1544:B 0.000136685
53 *155:20 *167:24 0.000158607
*RES
1 *1423:Y *167:24 18.2963 
2 *167:24 *167:34 5.65103 
3 *167:34 *1544:B 38.505 
4 *167:34 *1556:A2 3.6 
5 *167:24 *1424:A 12.23 
*END

*D_NET *168 0.0283526
*CONN
*I *1559:A1 I *D sky130_fd_sc_hd__a31o_1
*I *1434:B I *D sky130_fd_sc_hd__and3_1
*I *1433:A2 I *D sky130_fd_sc_hd__a21oi_2
*I *1424:Y O *D sky130_fd_sc_hd__nand3_4
*CAP
1 *1559:A1 3.68722e-05
2 *1434:B 3.37871e-05
3 *1433:A2 0.000943589
4 *1424:Y 0.00124125
5 *168:36 0.00232143
6 *168:18 0.00265725
7 *168:16 0.00236945
8 *168:8 0.00233439
9 *1433:A2 *1433:B1 0.00175787
10 *1433:A2 *1434:C 4.76051e-05
11 *1433:A2 *1536:B1 0.000346124
12 *1433:A2 *177:28 2.21785e-05
13 *1433:A2 *213:30 4.77757e-05
14 *168:8 *203:37 0.000146185
15 *168:16 *1431:A1 0.000298415
16 *168:16 *1471:A2 0.00116995
17 *168:16 *172:24 0.00243434
18 *168:16 *199:31 0.000710603
19 *168:16 *199:42 0.00022282
20 *168:18 *1545:B1 3.07331e-05
21 *168:18 *186:24 0
22 *168:18 *186:26 0.000684277
23 *168:36 *1393:A 7.06865e-05
24 *168:36 *1434:C 5.51672e-05
25 *168:36 *1446:B2 0.000315006
26 *168:36 *1536:B1 0
27 *168:36 *1538:A3 0
28 *168:36 *1542:B 0
29 *168:36 *183:170 8.85876e-05
30 *168:36 *186:26 3.39981e-05
31 *168:36 *186:28 0
32 *168:36 *228:51 0.000232502
33 *1396:A2 *168:8 5.43631e-05
34 *1433:A1 *1433:A2 0.00343195
35 *1461:C *168:36 0.000276322
36 *1476:A *168:36 0
37 *1492:B1 *168:8 0.000618093
38 *1503:C1 *168:18 0.00148905
39 *1536:B2 *1433:A2 0.000132644
40 *1559:B1 *168:36 0.000198118
41 *1560:A *168:18 4.02505e-05
42 *48:16 *168:36 1.37895e-05
43 *107:12 *1434:B 4.77769e-05
44 *130:67 *1559:A1 1.56428e-05
45 *137:16 *168:36 0.000669444
46 *137:131 *168:16 1.1561e-05
47 *155:20 *168:16 4.21127e-05
48 *158:49 *1559:A1 5.61451e-05
49 *167:24 *168:16 0.000602475
*RES
1 *1424:Y *168:8 23.715 
2 *168:8 *168:16 31.5278 
3 *168:16 *168:18 27.0075 
4 *168:18 *168:36 30.955 
5 *168:36 *1433:A2 41.85 
6 *168:36 *1434:B 4.05 
7 *168:18 *1559:A1 4.41 
*END

*D_NET *169 0.0287293
*CONN
*I *1430:A I *D sky130_fd_sc_hd__nor3_2
*I *1431:A1 I *D sky130_fd_sc_hd__o21ai_2
*I *1425:X O *D sky130_fd_sc_hd__and2b_2
*CAP
1 *1430:A 0.00559548
2 *1431:A1 0.00300472
3 *1425:X 4.35585e-05
4 *169:10 0.00864376
5 *1430:A *1404:A 0
6 *1430:A *1430:B 0.000415348
7 *1430:A *1514:A1 0.000335273
8 *1430:A *180:23 0.000183344
9 *1430:A *195:20 0.000136623
10 *1430:A *213:18 0.000151051
11 *1430:A *222:39 0.000306203
12 *1431:A1 *1397:A 6.65534e-05
13 *1431:A1 *1431:A2 2.03649e-05
14 *1431:A1 *1431:B1 0.00136046
15 *1431:A1 *1435:B 0.000191136
16 *1431:A1 *175:20 2.10214e-05
17 *1431:A1 *209:106 0.000456724
18 *1431:A1 *211:56 0.000137136
19 *1431:A1 *215:16 1.74678e-05
20 *169:10 *211:56 1.05827e-05
21 *1413:A3 *1430:A 3.70537e-05
22 *1422:A_N *1430:A 0.000202939
23 *1422:B *1430:A 0.00102444
24 *1423:B *1431:A1 2.76204e-05
25 *1425:A_N *169:10 4.66108e-05
26 *1480:B *1430:A 1.09082e-05
27 *1495:B *1430:A 0
28 *1515:A1 *1431:A1 0
29 *1516:A3 *1430:A 2.37183e-05
30 *1517:A *1431:A1 0.000159964
31 *1521:A3 *1431:A1 0.000106321
32 *1526:B1 *1430:A 0.000156943
33 *1531:A *1430:A 0.0002026
34 *1544:A *1430:A 0.000107684
35 *1551:A *1431:A1 5.12017e-06
36 *66:36 *1431:A1 9.39045e-07
37 *103:12 *1430:A 0.000817226
38 *104:26 *1430:A 0.000106321
39 *112:10 *1430:A 0.000709581
40 *130:51 *1431:A1 0.00109232
41 *141:10 *1431:A1 0.000271848
42 *141:28 *1431:A1 0.000561115
43 *153:12 *1431:A1 0.000134556
44 *153:12 *169:10 1.7635e-05
45 *155:20 *1430:A 0.000128055
46 *155:20 *1431:A1 0.000438744
47 *167:24 *1430:A 0.000473126
48 *167:24 *1431:A1 0.00047073
49 *168:16 *1431:A1 0.000298415
*RES
1 *1425:X *169:10 4.2825 
2 *169:10 *1431:A1 41.4392 
3 *169:10 *1430:A 31.0716 
*END

*D_NET *170 0.0237626
*CONN
*I *1431:A2 I *D sky130_fd_sc_hd__o21ai_2
*I *1430:B I *D sky130_fd_sc_hd__nor3_2
*I *1426:X O *D sky130_fd_sc_hd__and3_2
*CAP
1 *1431:A2 0.0016451
2 *1430:B 0.00113853
3 *1426:X 7.25102e-05
4 *170:18 0.00351832
5 *170:12 0.00409741
6 *1430:B *201:33 0.00155878
7 *1430:B *213:18 0.000281406
8 *1431:A2 *1444:A 0.00247327
9 *1431:A2 *1445:B1 0
10 *1431:A2 *1475:A 0
11 *1431:A2 *175:20 0.00036054
12 *1431:A2 *183:131 0.000113972
13 *1431:A2 *187:24 4.25303e-05
14 *1431:A2 *202:48 0
15 *1431:A2 *215:16 0.000160314
16 *1431:A2 *228:66 0
17 *1431:A2 *228:78 7.63125e-05
18 *170:12 *183:131 4.6368e-06
19 *170:18 *1429:B 2.76356e-05
20 *170:18 *1444:A 0.000127705
21 *170:18 *188:81 0.000167163
22 *170:18 *200:24 0.00177077
23 *170:18 *211:8 0.00191975
24 *170:18 *228:66 0
25 *1426:C *170:18 0.000662817
26 *1430:A *1430:B 0.000415348
27 *1431:A1 *1431:A2 2.03649e-05
28 *1480:B *1431:A2 0
29 *1548:A2 *1431:A2 0
30 *1548:B1 *1431:A2 0.00011215
31 *1548:C1 *1431:A2 0.00012058
32 *35:61 *170:18 2.49909e-05
33 *40:33 *1431:A2 0.000210846
34 *49:71 *170:18 0.000378102
35 *91:26 *1430:B 0.000962295
36 *103:12 *1430:B 0
37 *104:26 *1430:B 0.000377205
38 *120:10 *1430:B 0
39 *131:48 *170:18 0.000120182
40 *142:94 *1431:A2 0.000314311
41 *146:12 *170:18 0.000486719
*RES
1 *1426:X *170:12 4.7325 
2 *170:12 *170:18 49.8425 
3 *170:18 *1430:B 36.56 
4 *170:12 *1431:A2 44.6925 
*END

*D_NET *171 0.00867904
*CONN
*I *1429:A I *D sky130_fd_sc_hd__xnor2_4
*I *1427:X O *D sky130_fd_sc_hd__and3_2
*CAP
1 *1429:A 0
2 *1427:X 0.00199907
3 *171:20 0.00199907
4 *171:20 *1432:A 0.000151485
5 *171:20 *172:24 0.000593076
6 *171:20 *197:35 0.000510718
7 *171:20 *199:31 0.00021935
8 *1402:A *171:20 0.000415572
9 *1406:B *171:20 0.000778648
10 *1423:B *171:20 0.000154977
11 *1425:A_N *171:20 0.00071798
12 *1529:B *171:20 2.23407e-05
13 *63:10 *171:20 0.00016163
14 *107:12 *171:20 0.000480206
15 *137:55 *171:20 0.000225695
16 *137:112 *171:20 3.25509e-05
17 *148:46 *171:20 0.000216668
*RES
1 *1427:X *171:20 49.34 
2 *171:20 *1429:A 1.6 
*END

*D_NET *172 0.018898
*CONN
*I *1492:A2 I *D sky130_fd_sc_hd__a21oi_1
*I *1429:B I *D sky130_fd_sc_hd__xnor2_4
*I *1428:Y O *D sky130_fd_sc_hd__nand2_2
*CAP
1 *1492:A2 0.00101866
2 *1429:B 0.000647098
3 *1428:Y 3.98087e-05
4 *172:24 0.00159655
5 *172:16 0.00237767
6 *172:6 0.00248669
7 *1429:B *175:28 0.00194659
8 *1429:B *188:81 8.40269e-05
9 *1492:A2 *1399:A2 4.2444e-05
10 *1492:A2 *1450:A2 0.00014379
11 *1492:A2 *1450:A3 0.00106007
12 *1492:A2 *1450:B1 1.16854e-05
13 *172:6 *1450:A2 2.49909e-05
14 *172:16 *1448:A 4.49585e-05
15 *172:16 *203:37 0.000172387
16 *172:24 *1432:A 0.000233446
17 *172:24 *199:31 1.16625e-05
18 *1421:A *172:24 9.26606e-05
19 *1428:A *172:16 8.41307e-05
20 *1538:C1 *1429:B 0.000401687
21 *40:33 *172:24 7.37907e-05
22 *137:112 *172:24 0.000421763
23 *137:131 *172:24 0.000675695
24 *145:26 *1429:B 0.00194794
25 *149:63 *172:16 7.47215e-05
26 *149:67 *172:16 2.23485e-05
27 *155:20 *172:24 0.000105665
28 *168:16 *172:24 0.00243434
29 *170:18 *1429:B 2.76356e-05
30 *171:20 *172:24 0.000593076
*RES
1 *1428:Y *172:6 2.05 
2 *172:6 *172:16 22.665 
3 *172:16 *172:24 35.515 
4 *172:24 *1429:B 28.065 
5 *172:6 *1492:A2 19.76 
*END

*D_NET *173 0.0252583
*CONN
*I *1431:B1 I *D sky130_fd_sc_hd__o21ai_2
*I *1430:C I *D sky130_fd_sc_hd__nor3_2
*I *1429:Y O *D sky130_fd_sc_hd__xnor2_4
*CAP
1 *1431:B1 0.0033803
2 *1430:C 0
3 *1429:Y 0
4 *173:12 0.00177602
5 *173:6 0.00515632
6 *1431:B1 *1435:B 1.79098e-05
7 *1431:B1 *1443:C_N 0.000191487
8 *1431:B1 *1482:A3 0.000345341
9 *1431:B1 *1517:B 0.000155497
10 *1431:B1 *175:20 4.66108e-05
11 *1431:B1 *194:18 4.21973e-05
12 *1431:B1 *209:106 0.000479818
13 *1431:B1 *215:16 0.000394053
14 *173:12 *174:22 0.000375825
15 *173:12 *179:46 0
16 *173:12 *211:24 0
17 *173:12 *219:30 0.0011733
18 *1422:B *173:12 0.000109931
19 *1423:B *1431:B1 0.00078689
20 *1431:A1 *1431:B1 0.00136046
21 *1461:A_N *1431:B1 1.92979e-05
22 *1461:A_N *173:12 0.000807773
23 *1480:B *1431:B1 0.00035198
24 *1490:C1 *1431:B1 0.000382543
25 *1492:A1 *1431:B1 0
26 *1495:B *1431:B1 0.00145612
27 *1495:B *173:12 0
28 *1515:A1 *1431:B1 0.000116957
29 *1521:A3 *1431:B1 0.000106321
30 *1538:C1 *1431:B1 0.00146248
31 *66:36 *1431:B1 1.15399e-05
32 *66:36 *173:12 0.00148774
33 *68:10 *173:12 0
34 *120:8 *173:12 0.00188735
35 *130:51 *1431:B1 0.000296581
36 *130:131 *1431:B1 4.50986e-05
37 *135:51 *1431:B1 0.00103452
*RES
1 *1429:Y *173:6 3.6 
2 *173:6 *173:12 49.805 
3 *173:12 *1430:C 1.6 
4 *173:6 *1431:B1 49.2119 
*END

*D_NET *174 0.020391
*CONN
*I *1432:A I *D sky130_fd_sc_hd__or2b_2
*I *1496:B1 I *D sky130_fd_sc_hd__a21o_1
*I *1430:Y O *D sky130_fd_sc_hd__nor3_2
*CAP
1 *1432:A 0.00260285
2 *1496:B1 0
3 *1430:Y 0.00123273
4 *174:24 0.0031523
5 *174:22 0.00178218
6 *1432:A *1455:A2 0.000802533
7 *1432:A *175:28 0.000451125
8 *1432:A *196:122 0.000301115
9 *1432:A *199:31 0.000215059
10 *174:22 *1514:A1 0
11 *174:22 *1542:A 0.000263893
12 *174:22 *213:18 0.00206845
13 *174:22 *219:30 0.00147169
14 *174:24 *1542:A 0.000315955
15 *174:24 *183:170 0.000221111
16 *174:24 *199:31 0
17 *174:24 *227:66 3.24295e-05
18 *1421:A *1432:A 8.17646e-05
19 *1538:C1 *1432:A 0.00157396
20 *68:10 *1432:A 7.12085e-05
21 *68:10 *174:22 1.88602e-05
22 *68:10 *174:24 0.000700827
23 *104:26 *174:22 0
24 *107:12 *1432:A 0.000132401
25 *137:112 *1432:A 0.00051269
26 *145:26 *1432:A 0.000145901
27 *145:26 *174:24 0.000331084
28 *148:46 *1432:A 0.000215059
29 *150:16 *1432:A 0.000187054
30 *155:20 *1432:A 0.000746034
31 *171:20 *1432:A 0.000151485
32 *172:24 *1432:A 0.000233446
33 *173:12 *174:22 0.000375825
*RES
1 *1430:Y *174:22 36.4953 
2 *174:22 *174:24 15.7875 
3 *174:24 *1496:B1 3.6 
4 *174:24 *1432:A 23.6837 
*END

*D_NET *175 0.0145712
*CONN
*I *1432:B_N I *D sky130_fd_sc_hd__or2b_2
*I *1496:A2 I *D sky130_fd_sc_hd__a21o_1
*I *1431:Y O *D sky130_fd_sc_hd__o21ai_2
*CAP
1 *1432:B_N 0
2 *1496:A2 0
3 *1431:Y 0.000964754
4 *175:28 0.00140571
5 *175:20 0.00237047
6 *175:20 *196:122 0.000268138
7 *175:20 *215:16 1.91597e-05
8 *175:20 *224:8 0.000283987
9 *175:28 *1550:A2 4.80285e-05
10 *175:28 *196:122 0.000139494
11 *175:28 *199:31 0.00284626
12 *175:28 *199:42 9.23473e-05
13 *175:28 *224:8 0.000630454
14 *1429:B *175:28 0.00194659
15 *1431:A1 *175:20 2.10214e-05
16 *1431:A2 *175:20 0.00036054
17 *1431:B1 *175:20 4.66108e-05
18 *1432:A *175:28 0.000451125
19 *1470:B *175:20 0.00165632
20 *1548:C1 *175:20 0.000314438
21 *35:71 *175:20 0.000164803
22 *98:12 *175:28 0
23 *145:26 *175:28 0.000155012
24 *148:12 *175:28 0.000374253
25 *150:16 *175:28 1.16465e-05
*RES
1 *1431:Y *175:20 30.32 
2 *175:20 *175:28 48.58 
3 *175:28 *1496:A2 1.6 
4 *175:20 *1432:B_N 1.6 
*END

*D_NET *176 0.0215319
*CONN
*I *1434:C I *D sky130_fd_sc_hd__and3_1
*I *1433:B1 I *D sky130_fd_sc_hd__a21oi_2
*I *1432:X O *D sky130_fd_sc_hd__or2b_2
*CAP
1 *1434:C 0.000243533
2 *1433:B1 0.00127071
3 *1432:X 0.00229332
4 *176:28 0.00221126
5 *176:24 0.00299034
6 *1433:B1 *1538:A3 0.000269343
7 *1433:B1 *177:28 4.89395e-05
8 *1434:C *1538:A3 0.000418219
9 *1434:C *1542:B 1.83194e-05
10 *176:24 *1455:A1 0.000310832
11 *176:24 *1455:A2 0.000343802
12 *176:24 *1503:A1 0.00131537
13 *176:24 *1581:A 0.00155015
14 *176:24 *183:28 0.000361816
15 *176:24 *183:53 0.00043544
16 *176:24 *188:81 0.000696817
17 *176:24 *211:24 6.19524e-05
18 *176:24 *224:8 0.00037473
19 *176:28 *1536:B1 0
20 *176:28 *1581:A 3.99339e-05
21 *176:28 *196:26 0.000139013
22 *176:28 *226:48 3.75093e-05
23 *1433:A1 *1434:C 0
24 *1433:A2 *1433:B1 0.00175787
25 *1433:A2 *1434:C 4.76051e-05
26 *1516:A2 *1433:B1 0.000144309
27 *1521:A3 *176:24 0.00010873
28 *1521:A3 *176:28 7.27402e-06
29 *1536:B2 *1433:B1 8.53011e-05
30 *1536:B2 *1434:C 0.000409123
31 *1538:C1 *176:24 0
32 *1546:A1 *176:24 0.000275923
33 *1560:A *176:28 0.0002547
34 *97:16 *176:24 0.000922493
35 *104:26 *176:28 0.000269683
36 *114:12 *176:24 0.000463718
37 *137:28 *176:24 0.000246758
38 *142:123 *176:24 0.000146003
39 *149:87 *176:24 0.000556409
40 *158:49 *176:24 0.000125244
41 *158:49 *176:28 0.000224249
42 *168:36 *1434:C 5.51672e-05
*RES
1 *1432:X *176:24 45.0726 
2 *176:24 *176:28 17.2775 
3 *176:28 *1433:B1 31.51 
4 *176:28 *1434:C 12.365 
*END

*D_NET *177 0.0189325
*CONN
*I *1435:A I *D sky130_fd_sc_hd__nor2_1
*I *1433:Y O *D sky130_fd_sc_hd__a21oi_2
*CAP
1 *1435:A 0
2 *1433:Y 0.00558299
3 *177:28 0.00558299
4 *177:28 *1435:B 0
5 *177:28 *1482:A1 0.000172688
6 *177:28 *1482:A3 0.00010894
7 *177:28 *1502:C1 0.000499412
8 *177:28 *178:12 0.000106668
9 *177:28 *204:38 5.98004e-06
10 *177:28 *204:46 0.000276967
11 *1426:B *177:28 7.23533e-05
12 *1433:A2 *177:28 2.21785e-05
13 *1433:B1 *177:28 4.89395e-05
14 *1487:A *177:28 9.06475e-05
15 *1490:C1 *177:28 5.38292e-05
16 *1503:B1 *177:28 0
17 *1521:A3 *177:28 0.000619802
18 *1523:B2 *177:28 0
19 *1534:A1 *177:28 0.000164946
20 *1549:A2 *177:28 1.17614e-05
21 *48:16 *177:28 2.4944e-05
22 *49:71 *177:28 0.000309191
23 *78:22 *177:28 0.000260604
24 *99:14 *177:28 5.11795e-05
25 *104:26 *177:28 0.00273549
26 *109:30 *177:28 0.000317817
27 *120:10 *177:28 0
28 *135:32 *177:28 0.000452918
29 *135:51 *177:28 0.000877187
30 *141:28 *177:28 4.12303e-05
31 *147:10 *177:28 0.00013521
32 *147:25 *177:28 0.000305627
*RES
1 *1433:Y *177:28 48.6426 
2 *177:28 *1435:A 1.6 
*END

*D_NET *178 0.010772
*CONN
*I *1435:B I *D sky130_fd_sc_hd__nor2_1
*I *1434:X O *D sky130_fd_sc_hd__and3_1
*CAP
1 *1435:B 0.000676516
2 *1434:X 0.00146838
3 *178:12 0.0021449
4 *1435:B *1456:A 0.000133527
5 *1435:B *1482:A3 0.00072866
6 *1435:B *179:20 8.23457e-05
7 *178:12 *1542:B 2.49993e-05
8 *1423:B *1435:B 0.000335476
9 *1431:A1 *1435:B 0.000191136
10 *1431:B1 *1435:B 1.79098e-05
11 *1505:A2 *178:12 1.15688e-05
12 *1521:A3 *178:12 0.000169048
13 *1530:A *178:12 0.000337832
14 *1538:A1 *178:12 0.000167451
15 *1538:A2 *178:12 4.0335e-05
16 *1538:B1 *178:12 1.61397e-05
17 *1538:C1 *178:12 4.04634e-05
18 *1552:C *1435:B 0.000443616
19 *1552:C *178:12 0.000559895
20 *35:61 *178:12 0.000177092
21 *49:71 *178:12 0
22 *99:14 *178:12 0.00134783
23 *100:22 *178:12 3.60566e-05
24 *107:12 *178:12 8.64421e-05
25 *135:22 *178:12 0.000224487
26 *141:28 *1435:B 0.000540546
27 *146:12 *178:12 0.000662703
28 *177:28 *1435:B 0
29 *177:28 *178:12 0.000106668
*RES
1 *1434:X *178:12 39.6225 
2 *178:12 *1435:B 24.0975 
*END

*D_NET *179 0.0149916
*CONN
*I *1481:A2 I *D sky130_fd_sc_hd__a211o_1
*I *1435:Y O *D sky130_fd_sc_hd__nor2_1
*CAP
1 *1481:A2 0
2 *1435:Y 0.00147107
3 *179:46 0.00290403
4 *179:20 0.0043751
5 *179:20 *1449:C 0.000119762
6 *179:20 *1519:A3 0.00060957
7 *179:20 *185:25 1.5379e-05
8 *179:20 *210:28 0
9 *179:46 *1452:B 3.20913e-06
10 *179:46 *1538:A3 0
11 *179:46 *190:32 0.000166174
12 *179:46 *196:26 3.21905e-05
13 *179:46 *209:28 0
14 *179:46 *210:56 0
15 *179:46 *217:8 7.12669e-05
16 *179:46 *222:39 0
17 *1413:B1 *179:20 6.33103e-05
18 *1422:A_N *179:46 3.22622e-05
19 *1425:A_N *179:20 0.000365093
20 *1425:B *179:20 0.000228231
21 *1435:B *179:20 8.23457e-05
22 *1483:B *179:20 0.000359774
23 *1483:B *179:46 0.000998891
24 *1513:B1 *179:20 0.000171524
25 *1526:B1 *179:46 0.00160684
26 *1531:C *179:46 0
27 *1544:A *179:46 1.7635e-05
28 *1558:B1 *179:46 0
29 *42:10 *179:20 0.00114654
30 *56:52 *179:20 4.42401e-05
31 *112:10 *179:46 6.08268e-05
32 *133:60 *179:46 4.63352e-05
33 *173:12 *179:46 0
*RES
1 *1435:Y *179:20 39.4675 
2 *179:20 *179:46 48.7114 
3 *179:46 *1481:A2 1.6 
*END

*D_NET *180 0.0114908
*CONN
*I *1479:C I *D sky130_fd_sc_hd__and3_2
*I *1518:C1 I *D sky130_fd_sc_hd__o211ai_2
*I *1437:B I *D sky130_fd_sc_hd__nor2_4
*I *1436:Y O *D sky130_fd_sc_hd__nand2_2
*CAP
1 *1479:C 6.26996e-05
2 *1518:C1 0.000693874
3 *1437:B 7.78497e-05
4 *1436:Y 1.65033e-05
5 *180:23 0.00183988
6 *180:8 0.00117766
7 *1479:C *1479:A 7.20926e-05
8 *1518:C1 *1404:A 0.0013285
9 *180:23 *1479:A 0.000119251
10 *180:23 *1592:A 0.000136877
11 *180:23 *210:28 0.000100728
12 *180:23 *210:32 0.000109128
13 *180:23 *223:10 0.00101733
14 *1394:B *1518:C1 4.82919e-05
15 *1396:A1 *180:8 2.49909e-05
16 *1430:A *180:23 0.000183344
17 *1471:A3 *180:23 0.000400757
18 *1483:B *180:23 0
19 *1495:B *1518:C1 0.000150616
20 *1518:B1 *1518:C1 0
21 *1533:B *1518:C1 0.00043145
22 *1549:C1 *1518:C1 0.000111293
23 *1550:A1 *180:23 6.9669e-05
24 *32:52 *1518:C1 1.21329e-05
25 *78:22 *1518:C1 0
26 *95:28 *1437:B 0.000218024
27 *95:28 *180:23 0.000258073
28 *97:16 *180:8 4.66108e-05
29 *112:10 *1437:B 0.000218024
30 *112:10 *180:23 0.00242514
31 *134:33 *180:23 0.000140034
*RES
1 *1436:Y *180:8 4.05 
2 *180:8 *1437:B 6.255 
3 *180:8 *180:23 34.475 
4 *180:23 *1518:C1 23.75 
5 *180:23 *1479:C 2.395 
*END

*D_NET *181 0.0404834
*CONN
*I *1447:A3 I *D sky130_fd_sc_hd__a311o_1
*I *1555:A3 I *D sky130_fd_sc_hd__a31o_1
*I *1526:A3 I *D sky130_fd_sc_hd__a31o_1
*I *1538:A3 I *D sky130_fd_sc_hd__a311o_1
*I *1513:A3 I *D sky130_fd_sc_hd__a31oi_2
*I *1548:A3 I *D sky130_fd_sc_hd__a311o_1
*I *1517:B I *D sky130_fd_sc_hd__or2_1
*I *1437:Y O *D sky130_fd_sc_hd__nor2_4
*CAP
1 *1447:A3 0
2 *1555:A3 0
3 *1526:A3 0
4 *1538:A3 0.00229448
5 *1513:A3 4.01327e-05
6 *1548:A3 0.000341892
7 *1517:B 0.00106066
8 *1437:Y 0.00011752
9 *181:115 0.00361225
10 *181:107 0.00219404
11 *181:87 0.00138576
12 *181:70 0.00129117
13 *181:18 0.00313513
14 *181:8 0.00259166
15 *1517:B *1399:B1 4.95818e-05
16 *1517:B *1448:A 0.000643938
17 *1517:B *1448:B 0.000142661
18 *1517:B *1472:A1 3.25831e-05
19 *1517:B *1472:A2 6.93342e-05
20 *1517:B *192:10 0.000157398
21 *1517:B *192:16 0.000702416
22 *1517:B *192:20 0.000345008
23 *1517:B *192:30 0.000197365
24 *1517:B *194:18 0.00061511
25 *1517:B *194:24 0.000229955
26 *1517:B *202:48 8.23457e-05
27 *1517:B *215:16 1.91597e-05
28 *1517:B *224:23 0.000119039
29 *1517:B *224:31 0.000321662
30 *1517:B *230:54 2.76356e-05
31 *1538:A3 *1542:A 0.000945837
32 *1538:A3 *1542:B 5.36958e-05
33 *1538:A3 *210:56 0.000501043
34 *1548:A3 *1399:A2 1.34361e-05
35 *1548:A3 *1478:B 9.47454e-05
36 *1548:A3 *202:48 0.000960684
37 *181:18 *1443:B 0.000178358
38 *181:18 *1462:B 2.11536e-05
39 *181:18 *183:22 0.000510869
40 *181:18 *192:30 0.00137285
41 *181:18 *197:10 7.12972e-05
42 *181:70 *1513:A1 8.23457e-05
43 *181:87 *1555:A1 0.000147875
44 *181:87 *229:20 0.00012369
45 *181:107 *1555:A1 0.000803364
46 *181:107 *1557:A1 0.000346985
47 *181:107 *200:24 0.000283804
48 *181:107 *206:35 0
49 *181:107 *226:76 2.98644e-05
50 *181:107 *229:20 0.000184447
51 *181:115 *1408:A2 0.000813659
52 *181:115 *1557:A1 9.12494e-06
53 *181:115 *226:10 0.000288524
54 *181:115 *226:76 0.000347589
55 *181:115 *229:14 3.78644e-05
56 *1413:B1 *181:8 0.000371529
57 *1413:B1 *181:70 0.000191883
58 *1414:A *181:18 0.000119756
59 *1414:B *181:18 0.000930817
60 *1431:B1 *1517:B 0.000155497
61 *1433:B1 *1538:A3 0.000269343
62 *1434:C *1538:A3 0.000418219
63 *1459:C *181:87 0
64 *1463:B *1517:B 8.40213e-05
65 *1476:A *1538:A3 0.000132057
66 *1481:C1 *1538:A3 8.75672e-05
67 *1485:B *181:70 0.000199369
68 *1507:A2 *181:107 0
69 *1509:A1 *1538:A3 7.03219e-05
70 *1509:A2 *1538:A3 6.90254e-05
71 *1513:B1 *181:70 0.00150678
72 *1514:C1 *181:70 0.00026617
73 *1523:B2 *1538:A3 0.000107002
74 *1525:A_N *181:70 0.00139191
75 *1532:A *1538:A3 0
76 *1536:B2 *1538:A3 0.000151321
77 *1548:A1 *1548:A3 1.25877e-05
78 *1548:A2 *1548:A3 9.09788e-06
79 *1548:B1 *1517:B 8.35068e-05
80 *1548:B1 *1548:A3 0.000800603
81 *1561:A *181:18 0.00121514
82 *39:22 *181:87 0
83 *56:56 *1513:A3 3.51072e-05
84 *56:56 *181:70 4.79045e-05
85 *63:18 *181:115 2.0514e-05
86 *69:14 *181:8 0.000369862
87 *69:14 *181:70 0.000199727
88 *107:12 *1538:A3 0.000156774
89 *109:30 *181:115 0
90 *116:20 *1548:A3 7.01359e-05
91 *132:12 *181:87 0
92 *133:44 *181:115 0.000307327
93 *148:30 *181:87 0.000516752
94 *149:67 *1517:B 5.93588e-05
95 *158:14 *181:18 1.34503e-05
96 *168:36 *1538:A3 0
97 *179:46 *1538:A3 0
*RES
1 *1437:Y *181:8 8.04 
2 *181:8 *181:18 45.99 
3 *181:18 *1517:B 45.715 
4 *181:18 *1548:A3 16.415 
5 *181:8 *181:70 25.895 
6 *181:70 *1513:A3 2.395 
7 *181:70 *181:87 12.965 
8 *181:87 *181:107 21.5 
9 *181:107 *181:115 28.585 
10 *181:115 *1538:A3 47.935 
11 *181:115 *1526:A3 1.6 
12 *181:107 *1555:A3 1.6 
13 *181:87 *1447:A3 3.6 
*END

*D_NET *182 0.0160662
*CONN
*I *1439:A I *D sky130_fd_sc_hd__clkbuf_4
*I *1438:X O *D sky130_fd_sc_hd__or2_1
*CAP
1 *1439:A 0.000469627
2 *1438:X 0.0023253
3 *182:14 0.00205576
4 *182:8 0.00391143
5 *1439:A *183:6 4.66108e-05
6 *182:14 *1585:A 0.000308177
7 out[1] *182:14 3.96214e-05
8 out[3] *182:14 0.000108647
9 out[4] *182:14 1.97486e-05
10 *1489:B *182:14 0.00138494
11 *1492:A1 *182:8 0.000575246
12 *1492:B1 *182:8 3.27443e-05
13 *1515:A2 *182:14 0.00214011
14 *1515:B1_N *182:14 0.000400717
15 *1533:C *182:8 0.00142034
16 *43:16 *1439:A 5.83121e-06
17 *50:29 *182:14 0.0007731
18 *65:12 *182:8 4.82863e-05
*RES
1 *1438:X *182:8 33.375 
2 *182:8 *182:14 48.945 
3 *182:14 *1439:A 9.57 
*END

*D_NET *183 0.0371258
*CONN
*I *1440:B I *D sky130_fd_sc_hd__nor2_1
*I *1557:A2 I *D sky130_fd_sc_hd__o22a_1
*I *1514:A2 I *D sky130_fd_sc_hd__o221a_1
*I *1527:B I *D sky130_fd_sc_hd__nor2_1
*I *1537:B I *D sky130_fd_sc_hd__nor2_1
*I *1547:B I *D sky130_fd_sc_hd__nor2_1
*I *1503:A2 I *D sky130_fd_sc_hd__o211ai_2
*I *1520:A2 I *D sky130_fd_sc_hd__o21ai_2
*I *1439:X O *D sky130_fd_sc_hd__clkbuf_4
*CAP
1 *1440:B 0
2 *1557:A2 0.000996697
3 *1514:A2 0.000461141
4 *1527:B 0
5 *1537:B 0
6 *1547:B 7.71361e-05
7 *1503:A2 0
8 *1520:A2 0.00110394
9 *1439:X 0.000104921
10 *183:170 0.00252632
11 *183:131 0.00301593
12 *183:70 0.000489943
13 *183:53 0.000819567
14 *183:28 0.00202479
15 *183:22 0.00208576
16 *183:6 0.00270175
17 *1514:A2 *1514:A1 1.79536e-05
18 *1514:A2 *188:16 0
19 *1520:A2 *197:35 2.49909e-05
20 *1557:A2 *1447:A2 0.000212703
21 *1557:A2 *1557:B2 0.000242478
22 *1557:A2 *206:62 0.000550085
23 *183:22 *1445:A1 0.000375365
24 *183:22 *192:30 0.000242696
25 *183:22 *196:68 0.000431609
26 *183:22 *205:53 8.167e-05
27 *183:28 *1455:A1 0.00032238
28 *183:53 *1503:A1 0.000373556
29 *183:53 *1581:A 0.00010833
30 *183:53 *196:122 0.000141006
31 *183:53 *215:16 9.47972e-06
32 *183:70 *215:16 0.000195856
33 *183:131 *1444:A 8.216e-05
34 *183:131 *188:16 0
35 *183:131 *188:61 0.000295979
36 *183:131 *227:106 8.53224e-05
37 *183:131 *228:66 6.77891e-05
38 *183:170 *228:51 0.00137036
39 *1406:B *1520:A2 0.000346344
40 *1412:C *183:22 1.70906e-05
41 *1421:A *1520:A2 0.000232105
42 *1431:A2 *183:131 0.000113972
43 *1439:A *183:6 4.66108e-05
44 *1441:B *1547:B 2.25299e-05
45 *1486:B *183:131 0
46 *1488:A1 *183:70 6.40304e-05
47 *1502:A2 *183:22 0.000368035
48 *1503:C1 *183:70 4.77757e-05
49 *1505:B1 *1557:A2 0.00118535
50 *1515:B1_N *1514:A2 0.000200787
51 *1515:B1_N *183:131 0.000157463
52 *1527:A *183:22 5.19006e-06
53 *1533:A *183:70 0
54 *1547:A *1547:B 4.77769e-05
55 *1549:C1 *183:70 0.000810724
56 *1558:B1 *1557:A2 0.000212062
57 *1559:A3 *1557:A2 8.53113e-06
58 *1561:A *183:22 0.000316346
59 *35:61 *183:170 0.000118081
60 *42:10 *183:28 2.11536e-05
61 *42:10 *183:53 0.000267821
62 *53:32 *1557:A2 0.000360606
63 *61:22 *1547:B 4.77769e-05
64 *69:20 *1520:A2 0.000920557
65 *71:12 *1557:A2 7.36843e-05
66 *98:12 *1547:B 0.000112589
67 *129:10 *1547:B 0.000131525
68 *129:36 *1547:B 2.02316e-05
69 *130:89 *1557:A2 0.000340778
70 *131:60 *183:22 0.000244516
71 *131:62 *183:22 3.83194e-05
72 *131:62 *183:28 0.000857109
73 *131:125 *1520:A2 0.00012648
74 *133:44 *1557:A2 0.000250698
75 *134:29 *183:70 0.000809557
76 *134:107 *183:131 8.8272e-05
77 *136:100 *183:22 0.000226752
78 *142:112 *183:131 0.000174054
79 *143:30 *183:22 2.47287e-05
80 *145:26 *183:170 0.000219444
81 *150:16 *1520:A2 0.00223641
82 *166:12 *183:170 0.00179967
83 *167:24 *183:22 0.000150143
84 *168:36 *183:170 8.85876e-05
85 *170:12 *183:131 4.6368e-06
86 *174:24 *183:170 0.000221111
87 *176:24 *183:28 0.000361816
88 *176:24 *183:53 0.00043544
89 *181:18 *183:22 0.000510869
*RES
1 *1439:X *183:6 2.74 
2 *183:6 *183:22 38.305 
3 *183:22 *183:28 14.48 
4 *183:28 *1520:A2 32.7 
5 *183:28 *183:53 13.355 
6 *183:53 *1503:A2 1.6 
7 *183:53 *183:70 16.03 
8 *183:70 *1547:B 7.94 
9 *183:70 *1537:B 1.6 
10 *183:22 *1527:B 1.6 
11 *183:6 *183:131 30.3025 
12 *183:131 *1514:A2 12.2025 
13 *183:131 *183:170 39.9375 
14 *183:170 *1557:A2 32.675 
15 *183:170 *1440:B 1.6 
*END

*D_NET *184 0.00884271
*CONN
*I *1447:B1 I *D sky130_fd_sc_hd__a311o_1
*I *1440:Y O *D sky130_fd_sc_hd__nor2_1
*CAP
1 *1447:B1 0.000223466
2 *1440:Y 0.00149106
3 *184:20 0.00171452
4 *1447:B1 *1447:A1 5.19006e-06
5 *1447:B1 *1447:A2 0.000632686
6 *1447:B1 *1447:C1 0.00070354
7 *1447:B1 *205:21 2.01934e-05
8 *184:20 *1400:C 9.23804e-06
9 *184:20 *1452:B 3.79006e-05
10 *184:20 *1535:B1 0.000704229
11 *184:20 *1557:B2 0.000342254
12 *184:20 *206:62 0.000305062
13 *184:20 *211:24 4.1588e-05
14 *184:20 *222:10 0.000121659
15 *184:20 *222:39 0.000799829
16 *184:20 *228:51 0.000264606
17 *1422:A_N *184:20 0.000112151
18 *1422:B *184:20 8.33066e-06
19 *1461:A_N *184:20 9.05535e-05
20 *1556:A1 *184:20 0.000219478
21 *103:12 *184:20 0.000480142
22 *122:20 *184:20 0.000300327
23 *128:8 *184:20 0
24 *130:89 *184:20 8.23457e-05
25 *164:23 *184:20 0.000132362
*RES
1 *1440:Y *184:20 43.26 
2 *184:20 *1447:B1 8.965 
*END

*D_NET *185 0.0202667
*CONN
*I *1442:B I *D sky130_fd_sc_hd__nor2_4
*I *1502:C1 I *D sky130_fd_sc_hd__a211o_1
*I *1519:A3 I *D sky130_fd_sc_hd__a31o_1
*I *1441:Y O *D sky130_fd_sc_hd__nand2_2
*CAP
1 *1442:B 0.000393485
2 *1502:C1 0.000569126
3 *1519:A3 0.00192694
4 *1441:Y 0.000663704
5 *185:25 0.00188586
6 *185:10 0.0035139
7 *1442:B *1443:C_N 0.000156927
8 *1442:B *186:24 4.66108e-05
9 *1442:B *204:38 0.000280488
10 *1442:B *230:54 2.49909e-05
11 *1502:C1 *1482:A1 0.000172688
12 *1502:C1 *1502:A1 1.91597e-05
13 *1502:C1 *204:38 0.00159659
14 *185:10 *209:85 0.000127629
15 *1425:B *1519:A3 0.000228231
16 *1427:B *1442:B 7.15381e-05
17 *1471:B1 *185:10 0.000865722
18 *1492:A1 *1442:B 0.000303356
19 *1519:A1 *1519:A3 3.96653e-05
20 *1519:B1 *1519:A3 0.000597388
21 *1540:B1 *1502:C1 0.000120655
22 *42:10 *185:10 0.00108807
23 *42:10 *185:25 0.00125616
24 *45:21 *185:10 7.28976e-05
25 *75:12 *1502:C1 8.82035e-05
26 *135:51 *1442:B 0.000353869
27 *135:51 *1502:C1 1.68797e-05
28 *136:73 *1442:B 6.60257e-06
29 *137:55 *185:10 0.000343231
30 *137:112 *185:10 0.0010111
31 *137:131 *185:10 7.25652e-05
32 *142:30 *1519:A3 0.000518511
33 *147:10 *1502:C1 0.00013521
34 *147:25 *1502:C1 0.000314158
35 *149:73 *1442:B 9.81542e-06
36 *155:20 *185:10 0.000250388
37 *177:28 *1502:C1 0.000499412
38 *179:20 *1519:A3 0.00060957
39 *179:20 *185:25 1.5379e-05
*RES
1 *1441:Y *185:10 29.165 
2 *185:10 *1519:A3 30.28 
3 *185:10 *185:25 14.18 
4 *185:25 *1502:C1 24.06 
5 *185:25 *1442:B 14.4 
*END

*D_NET *186 0.0364419
*CONN
*I *1512:B1 I *D sky130_fd_sc_hd__o21a_1
*I *1554:B I *D sky130_fd_sc_hd__and2b_1
*I *1523:B1 I *D sky130_fd_sc_hd__o22a_1
*I *1446:B1 I *D sky130_fd_sc_hd__o22a_1
*I *1546:B1 I *D sky130_fd_sc_hd__o22a_1
*I *1536:B1 I *D sky130_fd_sc_hd__o22a_1
*I *1442:Y O *D sky130_fd_sc_hd__nor2_4
*CAP
1 *1512:B1 0.000710562
2 *1554:B 0
3 *1523:B1 0.00082472
4 *1446:B1 0
5 *1546:B1 1.36534e-05
6 *1536:B1 0.00150921
7 *1442:Y 0
8 *186:65 0.00408926
9 *186:59 0.0042826
10 *186:28 0.00161741
11 *186:26 0.000483149
12 *186:24 0.00226073
13 *186:4 0.00217963
14 *1512:B1 *1512:A1 0.00118773
15 *1523:B1 *230:10 0.000202163
16 *1536:B1 *213:30 0.000605362
17 *186:24 *1465:A2 0.000271074
18 *186:24 *1545:B1 3.10366e-05
19 *186:24 *209:106 0.000121817
20 *186:24 *220:20 0.00115867
21 *186:24 *230:54 9.5049e-05
22 *186:65 *215:12 1.15078e-05
23 *186:65 *230:10 0.000352878
24 *1406:B *186:24 0.000111146
25 *1418:A *1523:B1 0.000181006
26 *1433:A1 *1536:B1 0.000210925
27 *1433:A2 *1536:B1 0.000346124
28 *1442:B *186:24 4.66108e-05
29 *1463:B *186:24 0.000709417
30 *1492:A1 *1512:B1 0.000270209
31 *1492:A1 *186:59 0.000924618
32 *1503:C1 *186:24 0
33 *1504:B1 *186:24 0
34 *1508:B *186:24 0.000269916
35 *1513:B1 *1512:B1 4.77807e-05
36 *1523:B2 *1523:B1 1.92979e-05
37 *1528:B *186:65 4.77719e-05
38 *1536:B2 *1536:B1 0.00243651
39 *1548:C1 *186:65 0.00148117
40 *1549:A1 *186:65 0.000170828
41 *1549:A2 *186:65 2.53841e-05
42 *1549:B1 *186:65 2.32438e-05
43 *1549:B2 *186:65 0.000222405
44 *1549:C1 *186:65 9.09183e-05
45 *1551:A *186:24 0.00015385
46 *1559:B1 *186:26 0.000492821
47 *1559:B1 *186:28 0.000132256
48 *1560:A *1536:B1 0.000875899
49 *1560:A *186:26 0.00121159
50 *1560:A *186:28 0.000181239
51 *37:10 *186:24 5.83121e-06
52 *61:22 *186:65 4.12086e-05
53 *98:12 *186:65 2.60185e-06
54 *114:8 *1546:B1 4.66108e-05
55 *130:67 *186:24 0.000113124
56 *131:125 *1523:B1 0
57 *136:69 *186:59 6.75724e-05
58 *136:73 *186:59 0.00035149
59 *137:16 *1536:B1 0
60 *137:16 *1546:B1 4.66108e-05
61 *137:43 *186:24 0.000466196
62 *137:55 *186:24 0.000178234
63 *149:16 *1523:B1 0.00121128
64 *149:67 *1512:B1 0.000146318
65 *149:67 *186:59 0.000273324
66 *149:87 *186:24 8.21029e-05
67 *168:18 *186:24 0
68 *168:18 *186:26 0.000684277
69 *168:36 *1536:B1 0
70 *168:36 *186:26 3.39981e-05
71 *168:36 *186:28 0
72 *176:28 *1536:B1 0
*RES
1 *1442:Y *186:4 1.6 
2 *186:4 *186:24 46.485 
3 *186:24 *186:26 14.64 
4 *186:26 *186:28 2.4 
5 *186:28 *1536:B1 42.555 
6 *186:28 *1546:B1 4.05 
7 *186:26 *1446:B1 3.6 
8 *186:4 *186:59 13.07 
9 *186:59 *186:65 43.175 
10 *186:65 *1523:B1 24.725 
11 *186:65 *1554:B 1.6 
12 *186:59 *1512:B1 19.2 
*END

*D_NET *187 0.00941315
*CONN
*I *1444:A I *D sky130_fd_sc_hd__clkbuf_4
*I *1443:X O *D sky130_fd_sc_hd__or3b_1
*CAP
1 *1444:A 0.000781679
2 *1443:X 0.000583558
3 *187:24 0.00136524
4 *1444:A *1390:A 0.000721097
5 *1444:A *1399:A2 0.000332178
6 *1444:A *227:106 0.000508015
7 *1444:A *228:66 0
8 *187:24 *1462:B 9.46859e-06
9 *187:24 *1478:B 0.000451779
10 *1411:A1 *187:24 0.000152896
11 *1431:A2 *1444:A 0.00247327
12 *1431:A2 *187:24 4.25303e-05
13 *1463:B *187:24 7.64165e-05
14 *1478:C *187:24 8.97054e-05
15 *1548:A1 *187:24 8.00424e-05
16 *1548:B1 *187:24 8.93946e-05
17 *1548:C1 *1444:A 2.85364e-05
18 *1548:C1 *187:24 4.66108e-05
19 *116:20 *187:24 0.000239296
20 *131:48 *1444:A 0.000141599
21 *134:107 *1444:A 0.000862183
22 *142:94 *1444:A 0.000107225
23 *142:112 *1444:A 2.05661e-05
24 *170:18 *1444:A 0.000127705
25 *183:131 *1444:A 8.216e-05
*RES
1 *1443:X *187:24 22.85 
2 *187:24 *1444:A 36.345 
*END

*D_NET *188 0.0364906
*CONN
*I *1445:B1 I *D sky130_fd_sc_hd__a21oi_1
*I *1545:B1 I *D sky130_fd_sc_hd__a21oi_1
*I *1535:B1 I *D sky130_fd_sc_hd__a21oi_2
*I *1557:B2 I *D sky130_fd_sc_hd__o22a_1
*I *1514:B2 I *D sky130_fd_sc_hd__o221a_1
*I *1501:A I *D sky130_fd_sc_hd__or3b_2
*I *1522:B1 I *D sky130_fd_sc_hd__a21oi_2
*I *1444:X O *D sky130_fd_sc_hd__clkbuf_4
*CAP
1 *1445:B1 0.000939475
2 *1545:B1 5.52044e-05
3 *1535:B1 0.00140101
4 *1557:B2 0.000313903
5 *1514:B2 5.36421e-05
6 *1501:A 0.000659232
7 *1522:B1 0.000249825
8 *1444:X 9.47828e-05
9 *188:81 0.00421373
10 *188:69 0.00398132
11 *188:61 0.00307485
12 *188:18 0.00155198
13 *188:16 0.00124388
14 *188:6 0.00135019
15 *1445:B1 *227:108 0.000340926
16 *1445:B1 *228:78 1.6783e-05
17 *1501:A *1477:A1 0.000725302
18 *1557:B2 *190:32 0
19 *188:6 *1469:A 2.39856e-05
20 *188:6 *1469:B 8.52845e-05
21 *188:16 *228:66 2.27488e-05
22 *188:18 *1514:A1 0
23 *188:18 *1587:A 0.00011379
24 *188:69 *1585:A 0.000416515
25 *188:69 *196:68 0.000118081
26 *188:81 *1455:A1 0.00103344
27 *188:81 *1455:A2 0.000165061
28 *188:81 *211:8 0.000615012
29 out[6] *188:18 0
30 *1423:A *1445:B1 8.49205e-05
31 *1424:A *1535:B1 0.000265328
32 *1429:B *188:81 8.40269e-05
33 *1431:A2 *1445:B1 0
34 *1477:A2 *1501:A 0
35 *1477:B1 *1501:A 8.55426e-06
36 *1486:B *188:16 0.000252296
37 *1486:B *188:61 0
38 *1514:A2 *188:16 0
39 *1514:B1 *1514:B2 1.99109e-05
40 *1515:A1 *1445:B1 9.58678e-06
41 *1515:A2 *1445:B1 0.000151346
42 *1515:B1_N *1445:B1 0.000282127
43 *1515:B1_N *188:61 0.000747057
44 *1519:B1 *1535:B1 0.000183635
45 *1522:A1 *1522:B1 8.64488e-05
46 *1522:A1 *188:18 0
47 *1522:A2 *188:18 0
48 *1523:B2 *1522:B1 6.16226e-06
49 *1524:A1 *1535:B1 0.00112
50 *1525:C *188:69 0.000191335
51 *1525:C *188:81 0.0004111
52 *1535:A1 *1535:B1 0.00013333
53 *1546:B2 *1545:B1 7.41352e-06
54 *1552:A *1501:A 3.99879e-05
55 *1557:A2 *1557:B2 0.000242478
56 *1558:B1 *1557:B2 0.000338531
57 *1561:A *188:69 0.000632897
58 *41:10 *1535:B1 0.00295062
59 *41:27 *1535:B1 0.000169783
60 *43:16 *188:61 0.000158532
61 *50:12 *1522:B1 0
62 *50:12 *188:18 0
63 *131:8 *188:18 0
64 *132:18 *188:69 0.000230893
65 *133:18 *1535:B1 3.84331e-05
66 *133:44 *1535:B1 7.46619e-05
67 *133:44 *1557:B2 0.000102125
68 *134:107 *188:16 0.000587369
69 *134:107 *188:18 0.000417872
70 *136:44 *1535:B1 1.26248e-05
71 *136:61 *1535:B1 3.81908e-06
72 *137:28 *188:81 0.000292059
73 *149:87 *1545:B1 2.92603e-05
74 *149:87 *188:81 2.25106e-05
75 *164:23 *1535:B1 0.000558663
76 *167:34 *1535:B1 0.000414711
77 *168:18 *1545:B1 3.07331e-05
78 *170:18 *188:81 0.000167163
79 *176:24 *188:81 0.000696817
80 *183:131 *188:16 0
81 *183:131 *188:61 0.000295979
82 *184:20 *1535:B1 0.000704229
83 *184:20 *1557:B2 0.000342254
84 *186:24 *1545:B1 3.10366e-05
*RES
1 *1444:X *188:6 3.085 
2 *188:6 *188:16 13.475 
3 *188:16 *188:18 11.325 
4 *188:18 *1522:B1 7.815 
5 *188:18 *1501:A 12.6 
6 *188:16 *1514:B2 4.41 
7 *188:6 *188:61 18.35 
8 *188:61 *188:69 24.65 
9 *188:69 *188:81 44.43 
10 *188:81 *1557:B2 12.135 
11 *188:81 *1535:B1 47.22 
12 *188:69 *1545:B1 6.84125 
13 *188:61 *1445:B1 25.12 
*END

*D_NET *189 0.0119561
*CONN
*I *1446:B2 I *D sky130_fd_sc_hd__o22a_1
*I *1445:Y O *D sky130_fd_sc_hd__a21oi_1
*CAP
1 *1446:B2 0.00172811
2 *1445:Y 0.00122969
3 *189:12 0.0029578
4 *1446:B2 *1446:A1 9.52787e-05
5 *1446:B2 *227:81 4.77757e-05
6 *1446:B2 *227:106 0.000161474
7 *189:12 *1445:A1 5.38992e-05
8 *1402:A *1446:B2 0
9 *1412:A *189:12 0.00165722
10 *1426:A *189:12 5.47418e-05
11 *1461:B *1446:B2 2.01565e-05
12 *1461:C *1446:B2 8.00926e-05
13 *1503:B1 *189:12 0.000112853
14 *35:12 *1446:B2 8.52845e-05
15 *45:29 *189:12 0.000304974
16 *45:33 *189:12 0.000596992
17 *47:43 *189:12 0.00224071
18 *131:48 *189:12 0.000168063
19 *144:30 *1446:B2 4.05956e-05
20 *158:49 *1446:B2 5.36384e-06
21 *168:36 *1446:B2 0.000315006
*RES
1 *1445:Y *189:12 41.585 
2 *189:12 *1446:B2 27.41 
*END

*D_NET *190 0.0115149
*CONN
*I *1447:C1 I *D sky130_fd_sc_hd__a311o_1
*I *1446:X O *D sky130_fd_sc_hd__o22a_1
*CAP
1 *1447:C1 0.000249968
2 *1446:X 0.00290742
3 *190:32 0.00315739
4 *1447:C1 *205:21 0.000885792
5 *190:32 *1452:B 4.78418e-06
6 *190:32 *199:31 1.32026e-05
7 *190:32 *206:62 0.000337229
8 *190:32 *227:66 0.000375537
9 *1447:B1 *1447:C1 0.00070354
10 *1461:B *190:32 0.000175088
11 *1480:B *190:32 0.000119893
12 *1504:B1 *190:32 3.93107e-05
13 *1557:B2 *190:32 0
14 *66:36 *190:32 0.000173792
15 *128:8 *190:32 0.00105273
16 *133:44 *190:32 0.000994625
17 *144:30 *190:32 0.000158414
18 *179:46 *190:32 0.000166174
*RES
1 *1446:X *190:32 42.9898 
2 *190:32 *1447:C1 9.985 
*END

*D_NET *191 0.00923863
*CONN
*I *1481:B1 I *D sky130_fd_sc_hd__a211o_1
*I *1447:X O *D sky130_fd_sc_hd__a311o_1
*CAP
1 *1481:B1 0.00124105
2 *1447:X 0.00179944
3 *191:12 0.00304048
4 *191:12 *205:12 0.000135442
5 *191:12 *228:12 8.76986e-05
6 *191:12 *228:16 0
7 *1481:A1 *1481:B1 0.000318017
8 *1484:B *191:12 0.00187939
9 *1534:A1 *1481:B1 0.000198046
10 *1534:B1 *1481:B1 0.000539064
11 *1577:A *191:12 0
*RES
1 *1447:X *191:12 41.3 
2 *191:12 *1481:B1 22.42 
*END

*D_NET *192 0.0247461
*CONN
*I *1450:A3 I *D sky130_fd_sc_hd__o31a_2
*I *1454:C I *D sky130_fd_sc_hd__and3_4
*I *1453:A2 I *D sky130_fd_sc_hd__a21oi_2
*I *1465:A2 I *D sky130_fd_sc_hd__o21a_1
*I *1448:X O *D sky130_fd_sc_hd__or2_4
*CAP
1 *1450:A3 0.000178776
2 *1454:C 0.000258667
3 *1453:A2 0
4 *1465:A2 0.00150734
5 *1448:X 0.00018489
6 *192:30 0.00259963
7 *192:20 0.00127286
8 *192:16 0.000696401
9 *192:10 0.000620827
10 *1450:A3 *1450:A2 0.00102256
11 *1450:A3 *1450:B1 1.52352e-05
12 *1454:C *1454:B 0.000455089
13 *1454:C *198:12 0.000162699
14 *1454:C *224:31 0.000743472
15 *1465:A2 *1465:B1 8.23457e-05
16 *1465:A2 *1507:B1 0.000154977
17 *1465:A2 *225:74 0.000266375
18 *192:10 *1399:B1 8.65905e-05
19 *192:16 *194:18 0.000647037
20 *192:20 *1443:A 6.29037e-05
21 *192:20 *1448:A 9.29751e-06
22 *192:20 *194:18 0.000322987
23 *192:20 *197:10 7.5416e-05
24 *192:20 *224:31 7.81221e-05
25 *192:30 *1448:A 0.000266817
26 *192:30 *194:18 2.60908e-05
27 *192:30 *194:24 6.05077e-05
28 *192:30 *197:10 0.00018421
29 *192:30 *205:53 0.00034573
30 *192:30 *224:23 1.14169e-05
31 *1403:B *192:30 0.00039175
32 *1410:B1 *1465:A2 0.00120792
33 *1417:A_N *1465:A2 0.00095286
34 *1422:A_N *1465:A2 0.000153816
35 *1465:A1 *1465:A2 8.18542e-05
36 *1489:B *1454:C 2.01504e-05
37 *1492:A2 *1450:A3 0.00106007
38 *1508:B *1465:A2 0.0012244
39 *1517:B *192:10 0.000157398
40 *1517:B *192:16 0.000702416
41 *1517:B *192:20 0.000345008
42 *1517:B *192:30 0.000197365
43 *1548:C1 *1454:C 0.000670209
44 *1556:A1 *1465:A2 7.66388e-05
45 *1559:A3 *1465:A2 5.54151e-05
46 *46:12 *192:30 0.000190615
47 *79:12 *1465:A2 0.00134017
48 *102:28 *192:30 0.000105649
49 *132:18 *192:30 0.000137777
50 *136:100 *192:30 0.000907814
51 *142:16 *192:30 6.02202e-05
52 *142:170 *1454:C 0.000269304
53 *143:10 *192:10 0.000127392
54 *143:10 *192:16 2.39642e-05
55 *149:63 *192:10 0
56 *181:18 *192:30 0.00137285
57 *183:22 *192:30 0.000242696
58 *186:24 *1465:A2 0.000271074
*RES
1 *1448:X *192:10 8.325 
2 *192:10 *192:16 9.33 
3 *192:16 *192:20 8.225 
4 *192:20 *192:30 39.43 
5 *192:30 *1465:A2 46.21 
6 *192:20 *1453:A2 1.6 
7 *192:16 *1454:C 15.09 
8 *192:10 *1450:A3 13.365 
*END

*D_NET *193 0.0182177
*CONN
*I *1591:A I *D sky130_fd_sc_hd__dlymetal6s2s_1
*I *1482:B1 I *D sky130_fd_sc_hd__o31a_4
*I *1456:A I *D sky130_fd_sc_hd__and3_1
*I *1507:B1 I *D sky130_fd_sc_hd__o21a_1
*I *1465:B1 I *D sky130_fd_sc_hd__o21a_1
*I *1449:Y O *D sky130_fd_sc_hd__nand3b_4
*CAP
1 *1591:A 0.000213318
2 *1482:B1 0
3 *1456:A 0.000757139
4 *1507:B1 0.000126327
5 *1465:B1 4.44008e-05
6 *1449:Y 0
7 *193:56 0.00209082
8 *193:18 0.0012545
9 *193:8 0.00287152
10 *193:6 0.000667383
11 *1456:A *1482:A3 0.000132224
12 *1507:B1 *200:24 7.34134e-05
13 *1591:A *209:16 3.69164e-05
14 *1591:A *223:10 0.000119246
15 *1591:A *225:74 0.000159957
16 *193:8 *209:16 1.71013e-05
17 *193:8 *225:74 0.000242463
18 *193:56 *1404:A 0.000152408
19 *193:56 *205:21 0.000471953
20 *1396:A2 *193:8 0
21 *1413:A3 *1591:A 0.000105681
22 *1435:B *1456:A 0.000133527
23 *1456:B *1456:A 4.60123e-05
24 *1456:C *1456:A 0.000325361
25 *1461:A_N *193:56 0.000149359
26 *1465:A1 *1465:B1 0.000110025
27 *1465:A1 *1507:B1 2.07448e-05
28 *1465:A1 *193:18 0.000111827
29 *1465:A2 *1465:B1 8.23457e-05
30 *1465:A2 *1507:B1 0.000154977
31 *1507:A2 *193:18 0.000171503
32 *1516:A3 *193:8 0.000119891
33 *1539:A2 *193:18 0.000628445
34 *1539:B1_N *193:56 0.000214955
35 *1540:B1 *193:56 0.00176509
36 *30:10 *1456:A 0.000948161
37 *39:22 *1507:B1 7.46328e-06
38 *40:33 *1591:A 0.000412243
39 *53:32 *193:8 0.000612066
40 *53:32 *193:18 9.10613e-05
41 *55:14 *193:56 0.000119756
42 *75:12 *193:56 0.000501362
43 *79:12 *1507:B1 0.000230002
44 *109:18 *1591:A 5.16418e-05
45 *121:10 *1465:B1 4.9968e-05
46 *121:10 *193:18 0.000196943
47 *122:20 *193:8 0.000416333
48 *122:20 *193:18 5.01076e-05
49 *156:14 *1456:A 0.00077025
50 *156:14 *193:56 0.00018955
*RES
1 *1449:Y *193:6 3.6 
2 *193:6 *193:8 12.855 
3 *193:8 *193:18 19.36 
4 *193:18 *1465:B1 5.01 
5 *193:18 *1507:B1 7.185 
6 *193:8 *193:56 35.025 
7 *193:56 *1456:A 23.855 
8 *193:56 *1482:B1 1.6 
9 *193:6 *1591:A 9.84 
*END

*D_NET *194 0.018397
*CONN
*I *1472:B1 I *D sky130_fd_sc_hd__a21o_1
*I *1482:A3 I *D sky130_fd_sc_hd__o31a_4
*I *1451:B I *D sky130_fd_sc_hd__xnor2_2
*I *1450:X O *D sky130_fd_sc_hd__o31a_2
*CAP
1 *1472:B1 0
2 *1482:A3 0.000740055
3 *1451:B 0.000608019
4 *1450:X 0.00120133
5 *194:24 0.00170361
6 *194:18 0.00155687
7 *1451:B *204:34 0.00205245
8 *1482:A3 *228:78 0.00015639
9 *194:18 *1443:A 0.000221829
10 *194:18 *1448:A 0.000481786
11 *194:18 *1450:A2 8.50773e-05
12 *194:18 *1450:B1 0.000198344
13 *194:18 *215:16 0.00018955
14 *194:24 *1443:B 2.739e-05
15 *194:24 *1472:A1 0.000176084
16 *194:24 *204:34 0.000360935
17 *1406:B *1451:B 0.000305039
18 *1406:B *194:24 4.66108e-05
19 *1428:A *194:18 0.000493431
20 *1431:B1 *1482:A3 0.000345341
21 *1431:B1 *194:18 4.21973e-05
22 *1435:B *1482:A3 0.00072866
23 *1456:A *1482:A3 0.000132224
24 *1517:B *194:18 0.00061511
25 *1517:B *194:24 0.000229955
26 *1551:A *1482:A3 0.000725218
27 *46:12 *194:24 0.000444144
28 *68:12 *1451:B 0.000325807
29 *68:16 *1451:B 0.000302664
30 *135:32 *1482:A3 0.000452918
31 *135:51 *1482:A3 0.000136143
32 *136:100 *194:24 0.000192229
33 *137:59 *1451:B 0.000388037
34 *137:59 *194:24 0.000153363
35 *137:63 *194:24 0.000266377
36 *141:28 *1482:A3 0.000721622
37 *143:10 *194:18 0.000267109
38 *147:25 *1482:A3 0.000157551
39 *149:67 *194:18 0
40 *177:28 *1482:A3 0.00010894
41 *192:16 *194:18 0.000647037
42 *192:20 *194:18 0.000322987
43 *192:30 *194:18 2.60908e-05
44 *192:30 *194:24 6.05077e-05
*RES
1 *1450:X *194:18 35.62 
2 *194:18 *194:24 13.85 
3 *194:24 *1451:B 21.025 
4 *194:24 *1482:A3 34.29 
5 *194:18 *1472:B1 3.6 
*END

*D_NET *195 0.019847
*CONN
*I *1469:B I *D sky130_fd_sc_hd__or2_1
*I *1452:B I *D sky130_fd_sc_hd__nand2_4
*I *1451:Y O *D sky130_fd_sc_hd__xnor2_2
*CAP
1 *1469:B 0.00132351
2 *1452:B 0.00113046
3 *1451:Y 0.00163378
4 *195:20 0.00408775
5 *1452:B *226:27 0.000157919
6 *1469:B *1469:A 0.000168498
7 *195:20 *1409:D 0.000265659
8 *195:20 *204:27 0.000147863
9 *195:20 *204:34 5.70715e-05
10 *195:20 *210:28 0.00018955
11 *195:20 *211:24 8.0494e-05
12 *195:20 *211:56 0.000164221
13 *195:20 *222:39 0.00150943
14 *1413:A3 *195:20 4.24562e-05
15 *1413:B1 *195:20 0.00108845
16 *1422:A_N *1452:B 0.000119762
17 *1422:A_N *195:20 0.000191665
18 *1430:A *195:20 0.000136623
19 *1458:A1 *195:20 0.000217415
20 *1460:B_N *1469:B 0.000301115
21 *1461:B *1452:B 0.000187409
22 *1461:B *195:20 0.000347359
23 *1495:B *195:20 0.000116216
24 *1496:A1 *1469:B 0.000996787
25 *1505:B1 *1452:B 0.000267128
26 *1526:B1 *1452:B 0.000296452
27 *1544:A *1452:B 0.00036732
28 *1544:B *1452:B 0.000156754
29 *1558:B1 *1452:B 0.000281932
30 *35:61 *1469:B 8.23457e-05
31 *68:10 *195:20 0.000639665
32 *69:14 *1452:B 0.000304845
33 *69:14 *1469:B 4.66108e-05
34 *69:14 *195:20 3.78419e-05
35 *112:10 *1452:B 0.000237588
36 *112:10 *195:20 4.02884e-05
37 *142:112 *1469:B 0.00181199
38 *153:12 *195:20 0.000189483
39 *158:14 *1469:B 0.000294162
40 *179:46 *1452:B 3.20913e-06
41 *184:20 *1452:B 3.79006e-05
42 *188:6 *1469:B 8.52845e-05
43 *190:32 *1452:B 4.78418e-06
*RES
1 *1451:Y *195:20 42.3489 
2 *195:20 *1452:B 36.4 
3 *195:20 *1469:B 31.495 
*END

*D_NET *196 0.0368257
*CONN
*I *1488:A2 I *D sky130_fd_sc_hd__a31o_1
*I *1470:A I *D sky130_fd_sc_hd__nand2_1
*I *1478:B I *D sky130_fd_sc_hd__nand3_1
*I *1490:A2 I *D sky130_fd_sc_hd__a311oi_4
*I *1477:A1 I *D sky130_fd_sc_hd__a21o_1
*I *1452:Y O *D sky130_fd_sc_hd__nand2_4
*CAP
1 *1488:A2 0.000144059
2 *1470:A 0
3 *1478:B 0.000386499
4 *1490:A2 0
5 *1477:A1 0.000470809
6 *1452:Y 0.00167957
7 *196:122 0.0014451
8 *196:95 0.00270106
9 *196:68 0.0027994
10 *196:47 0.00161526
11 *196:26 0.00275274
12 *1477:A1 *1553:B 2.50049e-05
13 *1477:A1 *213:30 0
14 *1478:B *1399:A2 0.000160651
15 *1478:B *202:48 0.000768693
16 *196:26 *210:56 0
17 *196:26 *226:27 0.00129685
18 *196:26 *226:48 0.00115819
19 *196:47 *1469:A 0
20 *196:68 *205:53 1.23331e-05
21 *196:122 *1399:B1 0.000458684
22 *196:122 *1448:B 0
23 *196:122 *1503:A1 2.03321e-05
24 *196:122 *1581:A 0.000245094
25 *1421:B *196:95 0
26 *1432:A *196:122 0.000301115
27 *1471:A3 *1488:A2 0.000614368
28 *1471:B1 *196:122 0.0015849
29 *1477:A2 *1477:A1 0.000568038
30 *1477:B1 *1477:A1 8.64421e-05
31 *1478:A *1478:B 1.55369e-05
32 *1478:C *1478:B 6.55152e-05
33 *1488:A1 *1488:A2 0.000287962
34 *1488:A3 *1488:A2 0.000877738
35 *1488:A3 *196:122 1.60203e-05
36 *1488:B1 *1488:A2 2.0514e-05
37 *1488:B1 *196:122 8.23457e-05
38 *1490:C1 *196:95 0.000191324
39 *1501:A *1477:A1 0.000725302
40 *1501:C_N *1477:A1 0.000716573
41 *1501:C_N *196:47 0.000419948
42 *1502:B1 *196:47 3.5907e-05
43 *1502:B1 *196:68 0.000175333
44 *1503:B1 *1477:A1 0.000207036
45 *1503:B1 *196:47 0.000164905
46 *1505:A2 *196:26 0.000791752
47 *1518:B1 *196:122 6.97256e-05
48 *1530:A *196:26 0.000275162
49 *1530:C_N *196:26 0.000342784
50 *1548:A1 *196:95 0
51 *1548:A3 *1478:B 9.47454e-05
52 *1552:A *1477:A1 5.78276e-05
53 *1558:B1 *196:26 1.00332e-05
54 *1560:A *196:26 4.38947e-05
55 *37:10 *196:95 1.88656e-05
56 *37:10 *196:122 4.9367e-05
57 *42:10 *196:122 9.30717e-05
58 *45:21 *196:122 0
59 *47:20 *1477:A1 0.000316773
60 *47:20 *196:47 6.49364e-05
61 *49:55 *196:68 0.000135801
62 *53:76 *196:26 6.90254e-05
63 *61:22 *196:122 6.97256e-05
64 *80:14 *196:47 0.000326838
65 *102:28 *196:122 0.00109866
66 *114:8 *196:26 4.77719e-05
67 *116:20 *1478:B 0.000104538
68 *133:164 *196:122 2.97004e-06
69 *136:100 *196:68 0.000889958
70 *137:28 *196:26 2.47149e-05
71 *137:131 *196:122 0
72 *141:28 *196:47 0.00033027
73 *143:10 *196:95 0.000302965
74 *143:30 *196:47 0.000890071
75 *143:30 *196:68 0.00108284
76 *143:30 *196:95 2.14129e-05
77 *151:39 *196:68 0.00179889
78 *151:39 *196:95 0.000326044
79 *167:24 *196:68 5.58515e-05
80 *175:20 *196:122 0.000268138
81 *175:28 *196:122 0.000139494
82 *176:28 *196:26 0.000139013
83 *179:46 *196:26 3.21905e-05
84 *183:22 *196:68 0.000431609
85 *183:53 *196:122 0.000141006
86 *187:24 *1478:B 0.000451779
87 *188:69 *196:68 0.000118081
*RES
1 *1452:Y *196:26 45.035 
2 *196:26 *1477:A1 20.955 
3 *196:26 *196:47 17.07 
4 *196:47 *1490:A2 3.6 
5 *196:47 *196:68 36.505 
6 *196:68 *1478:B 18.0513 
7 *196:68 *196:95 7.11233 
8 *196:95 *1470:A 3.6 
9 *196:95 *196:122 42.46 
10 *196:122 *1488:A2 9.985 
*END

*D_NET *197 0.0144534
*CONN
*I *1455:A1 I *D sky130_fd_sc_hd__o21ai_4
*I *1462:B I *D sky130_fd_sc_hd__or3_1
*I *1453:Y O *D sky130_fd_sc_hd__a21oi_2
*CAP
1 *1455:A1 0.00138833
2 *1462:B 0.000431184
3 *1453:Y 0.000372096
4 *197:35 0.00204666
5 *197:10 0.00146161
6 *1455:A1 *1455:A2 0.000298296
7 *1462:B *1443:A 8.53113e-06
8 *1462:B *1443:B 9.50342e-06
9 *197:10 *1443:A 0.000762874
10 *197:10 *1448:A 0
11 *197:10 *224:23 5.83121e-06
12 *197:35 *1443:C_N 0.000485022
13 *1402:A *1455:A1 0.000303148
14 *1406:B *197:35 0.000598454
15 *1421:A *197:35 0.000352965
16 *1462:A *1462:B 5.83121e-06
17 *1478:C *1462:B 8.87273e-05
18 *1520:A2 *197:35 2.49909e-05
19 *42:10 *1455:A1 0.00046749
20 *97:16 *1455:A1 0.000923795
21 *137:28 *1455:A1 0.000133676
22 *137:55 *1455:A1 0.000391149
23 *142:16 *197:10 0.000114492
24 *142:123 *1455:A1 0.000687629
25 *143:30 *1462:B 1.73877e-05
26 *158:49 *1455:A1 0.000534815
27 *171:20 *197:35 0.000510718
28 *176:24 *1455:A1 0.000310832
29 *181:18 *1462:B 2.11536e-05
30 *181:18 *197:10 7.12972e-05
31 *183:28 *1455:A1 0.00032238
32 *187:24 *1462:B 9.46859e-06
33 *188:81 *1455:A1 0.00103344
34 *192:20 *197:10 7.5416e-05
35 *192:30 *197:10 0.00018421
*RES
1 *1453:Y *197:10 13.77 
2 *197:10 *1462:B 8.805 
3 *197:10 *197:35 20.56 
4 *197:35 *1455:A1 44.25 
*END

*D_NET *198 0.0178995
*CONN
*I *1462:C I *D sky130_fd_sc_hd__or3_1
*I *1455:A2 I *D sky130_fd_sc_hd__o21ai_4
*I *1454:X O *D sky130_fd_sc_hd__and3_4
*CAP
1 *1462:C 0
2 *1455:A2 0.0028551
3 *1454:X 0.0007933
4 *198:12 0.0036484
5 *1455:A2 *1581:A 0.000718283
6 *1455:A2 *222:45 0.00229526
7 *198:12 *1454:A 0.000159702
8 *1402:A *1455:A2 0.000702809
9 *1425:A_N *1455:A2 0.000129951
10 *1428:A *198:12 9.16271e-05
11 *1432:A *1455:A2 0.000802533
12 *1454:C *198:12 0.000162699
13 *1455:A1 *1455:A2 0.000298296
14 *1468:A *1455:A2 0.000363944
15 *1489:B *198:12 1.74678e-05
16 *1529:B *1455:A2 0.000102863
17 *1538:C1 *1455:A2 0
18 *1548:C1 *198:12 0.000282498
19 *63:10 *1455:A2 0.000330503
20 *97:16 *1455:A2 0.000112534
21 *116:20 *198:12 0.000822727
22 *134:12 *1455:A2 8.30799e-05
23 *134:23 *1455:A2 1.36332e-05
24 *134:23 *198:12 0.000587349
25 *142:94 *1455:A2 0.000544378
26 *142:94 *198:12 2.39512e-05
27 *142:123 *1455:A2 0.000108266
28 *142:170 *198:12 0.000274682
29 *155:20 *1455:A2 8.28992e-05
30 *167:24 *1455:A2 0.000981901
31 *176:24 *1455:A2 0.000343802
32 *188:81 *1455:A2 0.000165061
*RES
1 *1454:X *198:12 25.2975 
2 *198:12 *1455:A2 27.8924 
3 *198:12 *1462:C 3.6 
*END

*D_NET *199 0.0249562
*CONN
*I *1471:A2 I *D sky130_fd_sc_hd__a311o_4
*I *1550:A2 I *D sky130_fd_sc_hd__a31o_1
*I *1463:A I *D sky130_fd_sc_hd__and2_4
*I *1542:A I *D sky130_fd_sc_hd__nand2_1
*I *1455:Y O *D sky130_fd_sc_hd__o21ai_4
*CAP
1 *1471:A2 0.000671517
2 *1550:A2 0.000852803
3 *1463:A 0.000152799
4 *1542:A 0.000887113
5 *1455:Y 0
6 *199:42 0.00160174
7 *199:31 0.00171863
8 *199:4 0.00237552
9 *1463:A *1397:A 0.000288545
10 *1463:A *230:54 0.000520669
11 *1542:A *1542:B 0.000550915
12 *1542:A *227:66 2.69217e-05
13 *1550:A2 *224:8 3.23956e-05
14 *199:31 *227:66 0.000135831
15 *1386:B *1550:A2 6.86863e-05
16 *1432:A *199:31 0.000215059
17 *1455:B1 *1542:A 2.55917e-05
18 *1455:B1 *199:31 2.92298e-05
19 *1471:A1 *1471:A2 0.00120979
20 *1492:B1 *1471:A2 0.000180682
21 *1495:B *1471:A2 1.88656e-05
22 *1516:A2 *1542:A 0.000573744
23 *1523:B2 *1542:A 0.00011607
24 *1526:A1 *1542:A 0.00022448
25 *1538:A3 *1542:A 0.000945837
26 *1538:C1 *199:31 0.000139632
27 *1543:B *1542:A 4.77757e-05
28 *1549:B2 *1550:A2 0.000449994
29 *1550:A1 *1550:A2 0.00144171
30 *1550:A3 *1550:A2 0.000301899
31 *66:36 *1471:A2 1.7635e-05
32 *68:10 *1542:A 0
33 *107:12 *199:31 0.00032713
34 *117:12 *1550:A2 4.43212e-05
35 *128:12 *1550:A2 0.00109451
36 *137:131 *1471:A2 0
37 *144:30 *1542:A 4.77807e-05
38 *144:30 *199:31 3.75203e-05
39 *145:26 *199:31 0.000250031
40 *148:12 *1471:A2 4.32695e-05
41 *148:12 *199:42 1.82476e-05
42 *148:46 *199:31 0.00109309
43 *155:20 *1471:A2 0.00026409
44 *168:16 *1471:A2 0.00116995
45 *168:16 *199:31 0.000710603
46 *168:16 *199:42 0.00022282
47 *171:20 *199:31 0.00021935
48 *172:24 *199:31 1.16625e-05
49 *174:22 *1542:A 0.000263893
50 *174:24 *1542:A 0.000315955
51 *174:24 *199:31 0
52 *175:28 *1550:A2 4.80285e-05
53 *175:28 *199:31 0.00284626
54 *175:28 *199:42 9.23473e-05
55 *190:32 *199:31 1.32026e-05
*RES
1 *1455:Y *199:4 1.6 
2 *199:4 *1542:A 32.765 
3 *199:4 *199:31 47.99 
4 *199:31 *1463:A 8.535 
5 *199:31 *199:42 2.655 
6 *199:42 *1550:A2 25.905 
7 *199:42 *1471:A2 24.15 
*END

*D_NET *200 0.0278649
*CONN
*I *1404:A I *D sky130_fd_sc_hd__clkbuf_4
*I *1410:A1 I *D sky130_fd_sc_hd__a31o_1
*I *1562:X O *D sky130_fd_sc_hd__dlymetal6s2s_1
*CAP
1 *1404:A 0.00247683
2 *1410:A1 0.00218721
3 *1562:X 0.00228318
4 *200:24 0.00694722
5 *1404:A *1409:B 8.5242e-05
6 *1404:A *210:22 0.000279995
7 *1404:A *211:56 0.000408139
8 *1404:A *215:12 0.0002593
9 *1404:A *225:103 8.65961e-05
10 *200:24 *206:16 9.90471e-05
11 *200:24 *206:35 5.52217e-05
12 *200:24 *211:8 0.000346914
13 *1410:B1 *1410:A1 0.00284829
14 *1417:A_N *1410:A1 0.000195859
15 *1422:B *1404:A 0.000428525
16 *1430:A *1404:A 0
17 *1461:A_N *1404:A 0.000688687
18 *1461:A_N *200:24 0.000245893
19 *1480:B *1404:A 4.21808e-05
20 *1495:B *1404:A 0.000436022
21 *1502:A2 *1410:A1 0.000116158
22 *1507:B1 *200:24 7.34134e-05
23 *1518:B1 *1404:A 0
24 *1518:C1 *1404:A 0.0013285
25 *1528:B *1404:A 0.000451869
26 *1549:C1 *1404:A 3.1191e-05
27 *32:52 *1404:A 1.13394e-05
28 *39:22 *200:24 0.000196141
29 *61:22 *1404:A 0.000385407
30 *66:36 *1404:A 0.00188803
31 *66:36 *200:24 0.000247567
32 *117:12 *1404:A 0.000441396
33 *149:48 *1404:A 8.65961e-05
34 *170:18 *200:24 0.00177077
35 *181:107 *200:24 0.000283804
36 *193:56 *1404:A 0.000152408
*RES
1 *1562:X *200:24 41.965 
2 *200:24 *1410:A1 36.685 
3 *200:24 *1404:A 49.5989 
*END

*D_NET *201 0.0353185
*CONN
*I *1448:B I *D sky130_fd_sc_hd__or2_4
*I *1409:C I *D sky130_fd_sc_hd__and4_1
*I *1400:B I *D sky130_fd_sc_hd__and4_2
*I *1408:A2 I *D sky130_fd_sc_hd__a22o_1
*I *1389:A I *D sky130_fd_sc_hd__buf_4
*I *1563:X O *D sky130_fd_sc_hd__buf_2
*CAP
1 *1448:B 0.00174754
2 *1409:C 0
3 *1400:B 0
4 *1408:A2 0.00158638
5 *1389:A 3.55506e-05
6 *1563:X 0.000779807
7 *201:71 0.00264548
8 *201:33 0.0023359
9 *201:27 0.00162689
10 *201:23 0.00211739
11 *201:6 0.00115744
12 *1408:A2 *1400:C 9.24075e-05
13 *1408:A2 *225:14 0.000112478
14 *1448:B *1399:B1 0.000943358
15 *1448:B *1409:B 4.77719e-05
16 *1448:B *1503:A1 0.000254913
17 *1448:B *1581:A 0.000463197
18 *1448:B *230:41 5.65165e-05
19 *1448:B *230:54 0.000704587
20 *201:6 *1392:A 4.78847e-05
21 *201:6 *1483:A 0.000348125
22 *201:23 *1483:A 4.16353e-05
23 *201:33 *1400:D 8.8266e-05
24 *201:71 *1409:B 4.77757e-05
25 *201:71 *1409:D 0.00037595
26 *201:71 *230:41 2.10214e-05
27 *1406:A *201:27 0.00101861
28 *1406:A *201:33 0.00130688
29 *1408:B2 *1408:A2 0.000939516
30 *1417:A_N *201:33 0.000134516
31 *1418:B *201:23 0.000448307
32 *1418:B *201:27 0.000547426
33 *1419:C *201:71 2.5195e-05
34 *1430:B *201:33 0.00155878
35 *1455:B1 *1408:A2 0.00120084
36 *1457:B1 *201:71 0.000108086
37 *1471:C1 *1448:B 0.00042491
38 *1488:A1 *1448:B 0.00179495
39 *1497:B *201:27 0.000308807
40 *1498:B *201:23 0.000181622
41 *1498:B *201:27 0.000353534
42 *1517:A *1448:B 9.20336e-05
43 *1517:B *1448:B 0.000142661
44 *1526:A1 *1408:A2 0.000432506
45 *1531:B *1408:A2 8.52883e-05
46 *31:14 *201:71 8.71841e-05
47 *63:18 *1408:A2 9.49473e-05
48 *91:26 *201:27 0.00131677
49 *91:26 *201:33 0.000119056
50 *102:28 *1448:B 0
51 *104:26 *201:23 0.000209504
52 *104:26 *201:27 0.000589881
53 *104:26 *201:33 0.000273251
54 *120:10 *201:33 1.01661e-05
55 *133:12 *201:23 0.000122331
56 *133:44 *1408:A2 9.32602e-06
57 *133:60 *1408:A2 0.000280214
58 *133:117 *201:71 0.000777147
59 *143:58 *201:27 0.000203074
60 *144:10 *201:33 0.000872782
61 *155:20 *1448:B 0.000159935
62 *163:12 *201:71 0.000596567
63 *181:115 *1408:A2 0.000813659
64 *196:122 *1448:B 0
*RES
1 *1563:X *201:6 11.02 
2 *201:6 *1389:A 2.215 
3 *201:6 *201:23 10.445 
4 *201:23 *201:27 30.3525 
5 *201:27 *201:33 28.7375 
6 *201:33 *1408:A2 37.25 
7 *201:33 *1400:B 1.6 
8 *201:23 *201:71 21.32 
9 *201:71 *1409:C 1.6 
10 *201:71 *1448:B 47.3 
*END

*D_NET *202 0.0181594
*CONN
*I *1450:A1 I *D sky130_fd_sc_hd__o31a_2
*I *1454:A I *D sky130_fd_sc_hd__and3_4
*I *1397:B I *D sky130_fd_sc_hd__nand2_2
*I *1392:A I *D sky130_fd_sc_hd__buf_4
*I *1564:X O *D sky130_fd_sc_hd__clkbuf_2
*CAP
1 *1450:A1 0.000325134
2 *1454:A 0.000108776
3 *1397:B 0
4 *1392:A 0.000300084
5 *1564:X 0.000400605
6 *202:48 0.00146821
7 *202:35 0.0025368
8 *202:6 0.00220318
9 *1392:A *1483:A 8.52845e-05
10 *1450:A1 *1399:A2 0.000634284
11 *1450:A1 *1450:A2 4.66108e-05
12 *1450:A1 *1450:B1 4.66108e-05
13 *1450:A1 *1512:A2 6.63219e-06
14 *202:48 *1399:A2 0.000125751
15 *1418:A *1392:A 0
16 *1421:A *202:35 0.000124667
17 *1431:A2 *202:48 0
18 *1478:B *202:48 0.000768693
19 *1513:B1 *1450:A1 1.81324e-05
20 *1517:B *202:48 8.23457e-05
21 *1548:A3 *202:48 0.000960684
22 *1548:B1 *202:35 0.000285594
23 *1548:B1 *202:48 0.000282693
24 *1548:C1 *202:48 0
25 *1554:A_N *202:35 0
26 *1556:B1 *202:35 0.000112123
27 *116:20 *202:48 7.01123e-05
28 *121:10 *1392:A 0.000146702
29 *136:12 *1392:A 0.000210144
30 *141:10 *202:35 4.7003e-05
31 *142:170 *1450:A1 0
32 *142:170 *202:48 0.000863463
33 *143:58 *202:35 0.00351764
34 *143:58 *202:48 0.00042744
35 *148:14 *202:35 0.000536567
36 *148:20 *202:35 0.000767839
37 *162:14 *202:35 8.35068e-05
38 *163:12 *202:35 0.000139682
39 *164:6 *202:35 0.000119762
40 *164:23 *202:35 9.90522e-05
41 *198:12 *1454:A 0.000159702
42 *201:6 *1392:A 4.78847e-05
*RES
1 *1564:X *202:6 6.535 
2 *202:6 *1392:A 12.875 
3 *202:6 *202:35 45.745 
4 *202:35 *1397:B 1.6 
5 *202:35 *202:48 30.155 
6 *202:48 *1454:A 5.085 
7 *202:48 *1450:A1 11.55 
*END

*D_NET *203 0.0210992
*CONN
*I *1405:A I *D sky130_fd_sc_hd__buf_4
*I *1450:A2 I *D sky130_fd_sc_hd__o31a_2
*I *1388:B I *D sky130_fd_sc_hd__nand2_2
*I *1565:X O *D sky130_fd_sc_hd__clkbuf_2
*CAP
1 *1405:A 0.000354548
2 *1450:A2 0.000339487
3 *1388:B 0.00103439
4 *1565:X 8.44579e-05
5 *203:37 0.00362682
6 *203:31 0.0053812
7 *203:8 0.00285816
8 *1388:B *205:12 0.000455969
9 *1388:B *206:87 0.00029221
10 *1388:B *207:10 8.52883e-05
11 *1450:A2 *1450:B1 0.000156356
12 *203:31 *206:87 0.000505621
13 *203:31 *210:6 0.000354495
14 *1396:A2 *203:37 0.000153816
15 *1424:C *203:31 0.000140639
16 *1428:A *1450:A2 0.000472804
17 *1450:A1 *1450:A2 4.66108e-05
18 *1450:A3 *1450:A2 0.00102256
19 *1466:B *1388:B 8.55971e-05
20 *1466:B *203:31 6.34951e-05
21 *1492:A2 *1450:A2 0.00014379
22 *1492:B1 *203:37 0.00157679
23 *1531:A *1388:B 0.000450182
24 *1531:A *203:31 0.000757225
25 *1563:A *203:31 0
26 *1564:A *203:31 0
27 *1565:A *1388:B 0.000103207
28 *1565:A *203:31 7.70828e-05
29 *1567:A *1388:B 0
30 *1568:A *1388:B 0
31 *1572:A *203:31 4.77757e-05
32 *131:125 *203:31 0
33 *168:8 *203:37 0.000146185
34 *172:6 *1450:A2 2.49909e-05
35 *172:16 *203:37 0.000172387
36 *194:18 *1450:A2 8.50773e-05
*RES
1 *1565:X *203:8 4.395 
2 *203:8 *1388:B 25.62 
3 *203:8 *203:31 37.345 
4 *203:31 *203:37 41.705 
5 *203:37 *1450:A2 14.485 
6 *203:31 *1405:A 9.315 
*END

*D_NET *204 0.0344696
*CONN
*I *1472:A1 I *D sky130_fd_sc_hd__a21o_1
*I *1482:A2 I *D sky130_fd_sc_hd__o31a_4
*I *1553:A I *D sky130_fd_sc_hd__nor2_2
*I *1558:A1 I *D sky130_fd_sc_hd__a21oi_1
*I *1451:A I *D sky130_fd_sc_hd__xnor2_2
*I *1555:A1 I *D sky130_fd_sc_hd__a31o_1
*I *1566:X O *D sky130_fd_sc_hd__clkbuf_4
*CAP
1 *1472:A1 0.00025084
2 *1482:A2 0
3 *1553:A 0.000993175
4 *1558:A1 0.000698688
5 *1451:A 0
6 *1555:A1 0.000854726
7 *1566:X 0.000419662
8 *204:46 0.00236337
9 *204:38 0.00124067
10 *204:34 0.00143718
11 *204:27 0.00166312
12 *204:8 0.00232033
13 *1472:A1 *1443:B 8.43003e-05
14 *1472:A1 *1472:A2 9.50342e-06
15 *1553:A *1387:A 8.35984e-05
16 *1553:A *1473:A 2.6309e-05
17 *1553:A *213:30 0
18 *1555:A1 *1557:A1 0.000312176
19 *1555:A1 *229:20 0.000600828
20 *1558:A1 *1387:A 0.000136054
21 *1558:A1 *226:27 2.11195e-05
22 *1558:A1 *226:48 2.01565e-05
23 *204:34 *1443:B 0.00171237
24 *204:34 *210:28 0.000411116
25 *204:38 *1445:A1 0.00160446
26 *204:46 *1587:A 6.79659e-05
27 *1407:A1 *204:46 0.000112954
28 *1413:A1 *204:8 9.92166e-05
29 *1413:A2 *204:8 3.1562e-06
30 *1415:B *204:8 0.00016031
31 *1419:C *204:27 0.00021913
32 *1419:C *204:34 8.64421e-05
33 *1426:B *204:46 3.23391e-05
34 *1442:B *204:38 0.000280488
35 *1451:B *204:34 0.00205245
36 *1490:C1 *204:46 0.0001065
37 *1501:B *1553:A 2.24336e-05
38 *1502:B1 *1553:A 0.000320783
39 *1502:C1 *204:38 0.00159659
40 *1505:B1 *204:46 2.19555e-05
41 *1517:B *1472:A1 3.25831e-05
42 *1519:A1 *204:8 4.66108e-05
43 *1540:A2 *1553:A 9.13726e-05
44 *1540:B1 *204:38 2.78732e-05
45 *1540:B1 *204:46 0.000821275
46 *1552:B *1553:A 0.000763721
47 *1555:B1 *1555:A1 5.80175e-05
48 *1558:B1 *1558:A1 2.90938e-05
49 *1559:B1 *1558:A1 0.000371183
50 *46:12 *1472:A1 0.000466049
51 *49:12 *1472:A1 0.000103412
52 *49:71 *1553:A 0
53 *49:71 *204:46 0.000453327
54 *53:76 *1558:A1 9.57166e-05
55 *53:78 *1553:A 0.000110326
56 *68:16 *204:34 1.53053e-05
57 *121:10 *1555:A1 0.0027907
58 *121:10 *204:27 0.00028447
59 *131:74 *204:27 0.00117226
60 *137:16 *1558:A1 0.000416426
61 *137:28 *1558:A1 0.000119866
62 *148:24 *1555:A1 9.19583e-05
63 *148:24 *204:27 0.000277566
64 *148:30 *1555:A1 0.00103756
65 *149:67 *1472:A1 0.000154957
66 *149:73 *1472:A1 6.91036e-05
67 *149:73 *204:38 5.51172e-05
68 *157:12 *204:8 4.77757e-05
69 *166:12 *204:38 4.33164e-05
70 *177:28 *204:38 5.98004e-06
71 *177:28 *204:46 0.000276967
72 *181:87 *1555:A1 0.000147875
73 *181:107 *1555:A1 0.000803364
74 *194:24 *1472:A1 0.000176084
75 *194:24 *204:34 0.000360935
76 *195:20 *204:27 0.000147863
77 *195:20 *204:34 5.70715e-05
*RES
1 *1566:X *204:8 8.88 
2 *204:8 *1555:A1 37.755 
3 *204:8 *204:27 22.775 
4 *204:27 *1451:A 1.6 
5 *204:27 *204:34 23.91 
6 *204:34 *204:38 24.545 
7 *204:38 *204:46 20.51 
8 *204:46 *1558:A1 14.74 
9 *204:46 *1553:A 26.495 
10 *204:38 *1482:A2 3.6 
11 *204:34 *1472:A1 13.565 
*END

*D_NET *205 0.0268365
*CONN
*I *1446:A1 I *D sky130_fd_sc_hd__o22a_1
*I *1473:A I *D sky130_fd_sc_hd__xnor2_2
*I *1445:A1 I *D sky130_fd_sc_hd__a21oi_1
*I *1482:A1 I *D sky130_fd_sc_hd__o31a_4
*I *1447:A1 I *D sky130_fd_sc_hd__a311o_1
*I *1567:X O *D sky130_fd_sc_hd__buf_2
*CAP
1 *1446:A1 0.00115843
2 *1473:A 0.000166454
3 *1445:A1 0.00159475
4 *1482:A1 6.38141e-05
5 *1447:A1 1.83739e-05
6 *1567:X 0.000607096
7 *205:53 0.00207739
8 *205:34 0.00240996
9 *205:21 0.00234269
10 *205:12 0.00284164
11 *1445:A1 *1445:A2 5.83121e-06
12 *1446:A1 *227:81 9.91723e-05
13 *205:12 *1447:A2 1.77665e-05
14 *205:12 *206:16 0.000579159
15 *205:12 *206:87 0.000423674
16 *205:21 *1447:A2 2.14655e-05
17 *1388:B *205:12 0.000455969
18 *1402:A *1446:A1 4.17805e-05
19 *1403:B *205:53 7.31897e-05
20 *1446:B2 *1446:A1 9.52787e-05
21 *1447:B1 *1447:A1 5.19006e-06
22 *1447:B1 *205:21 2.01934e-05
23 *1447:C1 *205:21 0.000885792
24 *1461:A_N *1446:A1 4.89337e-05
25 *1490:C1 *1445:A1 0.000106321
26 *1502:B1 *1473:A 0.000374312
27 *1502:B1 *205:53 0.0011763
28 *1502:C1 *1482:A1 0.000172688
29 *1505:B1 *1446:A1 4.57551e-05
30 *1531:A *205:12 0.000239921
31 *1540:A2 *1473:A 5.11597e-05
32 *1553:A *1473:A 2.6309e-05
33 *1569:A *205:12 0.000170152
34 *46:12 *205:53 0
35 *49:55 *205:53 1.88602e-05
36 *49:71 *205:53 0.000129778
37 *62:18 *1446:A1 0.000456927
38 *78:22 *1446:A1 7.79878e-05
39 *102:28 *1473:A 9.45147e-05
40 *102:28 *205:53 0.00023344
41 *130:67 *1446:A1 0
42 *135:32 *205:21 0.000106413
43 *144:30 *1446:A1 2.68526e-05
44 *149:73 *1445:A1 0.0013895
45 *156:14 *205:21 0.00211561
46 *156:14 *205:34 0.000108375
47 *156:14 *205:53 0.000290073
48 *166:12 *1445:A1 0.00011774
49 *177:28 *1482:A1 0.000172688
50 *183:22 *1445:A1 0.000375365
51 *183:22 *205:53 8.167e-05
52 *189:12 *1445:A1 5.38992e-05
53 *191:12 *205:12 0.000135442
54 *192:30 *205:53 0.00034573
55 *193:56 *205:21 0.000471953
56 *196:68 *205:53 1.23331e-05
57 *204:38 *1445:A1 0.00160446
*RES
1 *1567:X *205:12 22.805 
2 *205:12 *1447:A1 1.96 
3 *205:12 *205:21 40.815 
4 *205:21 *1482:A1 7.745 
5 *205:21 *205:34 1.14 
6 *205:34 *1445:A1 37.1 
7 *205:34 *205:53 21.1625 
8 *205:53 *1473:A 8.1675 
9 *205:53 *1446:A1 9.72177 
*END

*D_NET *206 0.0304152
*CONN
*I *1483:A I *D sky130_fd_sc_hd__xnor2_2
*I *1500:A I *D sky130_fd_sc_hd__nand2_1
*I *1499:A I *D sky130_fd_sc_hd__nor2_1
*I *1507:A1 I *D sky130_fd_sc_hd__o21a_1
*I *1568:X O *D sky130_fd_sc_hd__buf_2
*CAP
1 *1483:A 0.00117713
2 *1500:A 0.000794394
3 *1499:A 0.000653272
4 *1507:A1 0
5 *1568:X 4.78063e-05
6 *206:87 0.00185559
7 *206:62 0.00269625
8 *206:35 0.00348592
9 *206:16 0.00139339
10 *206:8 0.00118886
11 *1483:A *209:85 0.000501095
12 *1499:A *1499:B 5.84828e-05
13 *206:62 *1447:A2 0.000374356
14 *206:62 *222:10 0.000520108
15 *206:62 *222:39 0.00041111
16 *206:62 *227:81 0.000400858
17 *1388:B *206:87 0.00029221
18 *1392:A *1483:A 8.52845e-05
19 *1401:A1 *1500:A 0.000228848
20 *1402:A *206:62 0.000480174
21 *1407:B1 *1500:A 2.03356e-05
22 *1417:A_N *206:35 0.000157276
23 *1466:B *206:87 0.00176722
24 *1484:B *206:16 0.000908579
25 *1484:B *206:87 0.000367681
26 *1498:B *1483:A 8.65961e-05
27 *1501:C_N *1500:A 2.01935e-05
28 *1504:A3 *206:62 0.000153816
29 *1504:B1 *206:62 4.33166e-05
30 *1505:B1 *206:62 8.20815e-06
31 *1531:A *206:16 0.000244647
32 *1531:A *206:87 0.000372002
33 *1534:A2 *1499:A 0.000759505
34 *1534:A2 *206:35 0.000423122
35 *1549:A2 *1499:A 0.000256445
36 *1549:A2 *206:35 0.000159507
37 *1554:A_N *206:35 0.000595554
38 *1557:A2 *206:62 0.000550085
39 *1565:A *206:87 0.000171759
40 *39:22 *206:35 3.69171e-05
41 *53:32 *206:62 0.000151136
42 *56:52 *1483:A 1.77595e-05
43 *71:8 *1483:A 0.000229549
44 *72:12 *1499:A 0.000111767
45 *73:6 *1500:A 2.31684e-05
46 *120:10 *1499:A 0.00137218
47 *120:10 *206:35 0.000162332
48 *122:20 *206:62 6.84056e-05
49 *130:89 *206:62 0.000396358
50 *133:12 *1483:A 0.000141865
51 *145:10 *1500:A 8.2555e-05
52 *145:10 *206:62 0.000703521
53 *145:26 *206:62 0.000201234
54 *157:12 *206:87 0.000310703
55 *181:107 *206:35 0
56 *184:20 *206:62 0.000305062
57 *190:32 *206:62 0.000337229
58 *200:24 *206:16 9.90471e-05
59 *200:24 *206:35 5.52217e-05
60 *201:6 *1483:A 0.000348125
61 *201:23 *1483:A 4.16353e-05
62 *203:31 *206:87 0.000505621
63 *205:12 *206:16 0.000579159
64 *205:12 *206:87 0.000423674
*RES
1 *1568:X *206:8 4.05 
2 *206:8 *206:16 15.44 
3 *206:16 *1507:A1 1.6 
4 *206:16 *206:35 23.175 
5 *206:35 *1499:A 23.685 
6 *206:35 *206:62 47.79 
7 *206:62 *1500:A 10.855 
8 *206:8 *206:87 33.57 
9 *206:87 *1483:A 24.145 
*END

*D_NET *207 0.0210868
*CONN
*I *1512:A1 I *D sky130_fd_sc_hd__o21a_1
*I *1506:A I *D sky130_fd_sc_hd__xnor2_4
*I *1513:A1 I *D sky130_fd_sc_hd__a31oi_2
*I *1569:X O *D sky130_fd_sc_hd__clkbuf_4
*CAP
1 *1512:A1 0.00265787
2 *1506:A 0.000480035
3 *1513:A1 2.91559e-05
4 *1569:X 0.000797226
5 *207:25 0.00543251
6 *207:10 0.00312098
7 *1506:A *1506:B 0.000668922
8 *1506:A *1512:A2 0.00014119
9 *1512:A1 *208:44 0.000286655
10 *1512:A1 *208:59 0.000183444
11 *207:10 *219:30 0.000163288
12 *207:25 *208:44 0.000148739
13 *207:25 *219:30 1.47539e-05
14 *207:25 *229:47 0.000470208
15 *1388:B *207:10 8.52883e-05
16 *1394:B *1506:A 0
17 *1441:B *1512:A1 0.000122028
18 *1465:A1 *207:10 0.00066041
19 *1465:A1 *207:25 0.00103608
20 *1512:B1 *1512:A1 0.00118773
21 *1516:A3 *207:25 3.6485e-05
22 *1554:A_N *207:25 0.00117643
23 *56:56 *1513:A1 4.41506e-05
24 *109:18 *207:25 0.000237201
25 *109:30 *207:10 0.000359546
26 *109:30 *207:25 2.5776e-05
27 *121:10 *207:25 0.00028976
28 *132:12 *207:10 8.41384e-05
29 *136:16 *207:25 0.000642473
30 *138:10 *1506:A 0
31 *162:27 *207:25 0.000421954
32 *181:70 *1513:A1 8.23457e-05
*RES
1 *1569:X *207:10 17.67 
2 *207:10 *1513:A1 4.395 
3 *207:10 *207:25 47.81 
4 *207:25 *1506:A 15.395 
5 *207:25 *1512:A1 38.995 
*END

*D_NET *208 0.0246254
*CONN
*I *1385:A I *D sky130_fd_sc_hd__or2_2
*I *1443:A I *D sky130_fd_sc_hd__or3b_1
*I *1441:A I *D sky130_fd_sc_hd__nand2_2
*I *1449:A_N I *D sky130_fd_sc_hd__nand3b_4
*I *1436:A I *D sky130_fd_sc_hd__nand2_2
*I *1570:X O *D sky130_fd_sc_hd__buf_2
*CAP
1 *1385:A 1.02819e-05
2 *1443:A 0.00140021
3 *1441:A 0
4 *1449:A_N 0
5 *1436:A 0.000465874
6 *1570:X 0.00132105
7 *208:59 0.00197254
8 *208:44 0.00164284
9 *208:14 0.00125088
10 *208:10 0.00318684
11 *1385:A *209:85 4.77757e-05
12 *1436:A *1449:C 0.000154977
13 *1436:A *209:16 0.000230009
14 *1436:A *209:28 0.000160826
15 *1436:A *210:32 0
16 *208:10 *225:103 0
17 *208:14 *209:16 0.00080717
18 *1394:A *208:10 0.000504184
19 *1394:B *208:10 0
20 *1396:A1 *1436:A 2.10214e-05
21 *1396:A2 *208:10 0.000408217
22 *1396:A2 *208:14 0.00237717
23 *1413:B1 *1436:A 5.09024e-05
24 *1441:B *208:44 0.000337861
25 *1462:B *1443:A 8.53113e-06
26 *1483:B *1436:A 0.000461835
27 *1488:A1 *208:59 0.000105439
28 *1512:A1 *208:44 0.000286655
29 *1512:A1 *208:59 0.000183444
30 *1516:A3 *208:14 0.000208883
31 *1523:A2 *208:10 0.00138111
32 *1531:A *208:10 1.68629e-05
33 *1533:A *208:59 0
34 *61:22 *1385:A 4.77757e-05
35 *89:8 *208:10 0.000506266
36 *97:16 *1436:A 0.000197826
37 *131:125 *208:10 4.8854e-05
38 *133:146 *208:10 0
39 *134:29 *1443:A 0.00133592
40 *136:61 *208:14 0.00011852
41 *136:150 *208:10 0.000222373
42 *136:150 *208:14 0.000765229
43 *138:10 *208:10 2.03321e-05
44 *143:10 *1443:A 0.000488219
45 *143:30 *1443:A 0.000115582
46 *147:25 *1436:A 0.000558742
47 *192:20 *1443:A 6.29037e-05
48 *194:18 *1443:A 0.000221829
49 *197:10 *1443:A 0.000762874
50 *207:25 *208:44 0.000148739
*RES
1 *1570:X *208:10 33.72 
2 *208:10 *208:14 30.41 
3 *208:14 *1436:A 18.89 
4 *208:14 *1449:A_N 1.6 
5 *208:10 *208:44 19.37 
6 *208:44 *1441:A 1.6 
7 *208:44 *208:59 11.585 
8 *208:59 *1443:A 34.36 
9 *208:59 *1385:A 4.05 
*END

*D_NET *209 0.0306581
*CONN
*I *1442:A I *D sky130_fd_sc_hd__nor2_4
*I *1443:C_N I *D sky130_fd_sc_hd__or3b_1
*I *1385:B I *D sky130_fd_sc_hd__or2_2
*I *1449:B I *D sky130_fd_sc_hd__nand3b_4
*I *1436:B I *D sky130_fd_sc_hd__nand2_2
*I *1502:A1 I *D sky130_fd_sc_hd__a211o_1
*I *1571:X O *D sky130_fd_sc_hd__clkbuf_4
*CAP
1 *1442:A 0
2 *1443:C_N 0.00031999
3 *1385:B 1.2983e-05
4 *1449:B 0
5 *1436:B 0
6 *1502:A1 0.00231133
7 *1571:X 0.0021836
8 *209:106 0.000942246
9 *209:85 0.00250354
10 *209:28 0.00268931
11 *209:16 0.00120274
12 *209:10 0.00487666
13 *1502:A1 *210:32 8.47798e-05
14 *1502:A1 *210:56 0
15 *209:16 *225:84 8.08153e-06
16 *209:85 *215:16 0.000518991
17 *209:106 *230:54 6.71882e-05
18 *1385:A *209:85 4.77757e-05
19 *1394:A *209:10 0.000286754
20 *1396:A1 *209:28 0.000382629
21 *1413:B1 *1502:A1 0.000220042
22 *1413:B1 *209:16 8.21139e-05
23 *1422:A_N *1502:A1 0.000112589
24 *1431:A1 *209:106 0.000456724
25 *1431:B1 *1443:C_N 0.000191487
26 *1431:B1 *209:106 0.000479818
27 *1436:A *209:16 0.000230009
28 *1436:A *209:28 0.000160826
29 *1442:B *1443:C_N 0.000156927
30 *1483:A *209:85 0.000501095
31 *1483:B *1502:A1 0
32 *1490:C1 *209:106 0.000184454
33 *1502:B1 *1502:A1 3.30511e-05
34 *1502:C1 *1502:A1 1.91597e-05
35 *1516:A2 *209:16 0.000224474
36 *1517:A *209:106 0.00019789
37 *1525:C *1502:A1 0.00015718
38 *1531:C *209:28 5.18694e-05
39 *1540:B1 *1502:A1 0.000669796
40 *1549:A2 *209:10 0
41 *1591:A *209:16 3.69164e-05
42 *33:16 *1502:A1 0.00018955
43 *55:14 *1502:A1 0.001433
44 *56:52 *209:28 0.000109198
45 *61:22 *209:85 5.8322e-05
46 *61:22 *209:106 0.000490445
47 *69:14 *1502:A1 0.000323004
48 *71:12 *209:16 0
49 *71:12 *209:28 0.000375821
50 *75:12 *1502:A1 6.07575e-06
51 *95:28 *1502:A1 0.000108293
52 *97:16 *209:28 0.000124848
53 *109:18 *209:16 0.000741626
54 *112:10 *1502:A1 8.9257e-05
55 *129:8 *209:85 0.00048731
56 *135:51 *1443:C_N 9.57142e-05
57 *136:61 *209:16 0.000116853
58 *136:100 *1443:C_N 0.000228746
59 *136:150 *209:10 0.000827144
60 *136:150 *209:16 0.000159964
61 *137:112 *209:85 0.000238719
62 *137:131 *209:85 8.33066e-06
63 *138:10 *209:10 9.14049e-05
64 *148:46 *1502:A1 0.000190712
65 *179:46 *209:28 0
66 *185:10 *209:85 0.000127629
67 *186:24 *209:106 0.000121817
68 *193:8 *209:16 1.71013e-05
69 *197:35 *1443:C_N 0.000485022
70 *208:14 *209:16 0.00080717
*RES
1 *1571:X *209:10 33.975 
2 *209:10 *209:16 25.19 
3 *209:16 *209:28 14.08 
4 *209:28 *1502:A1 48.025 
5 *209:28 *1436:B 1.6 
6 *209:16 *1449:B 1.6 
7 *209:10 *209:85 31.665 
8 *209:85 *1385:B 1.96 
9 *209:85 *209:106 20.335 
10 *209:106 *1443:C_N 14.375 
11 *209:106 *1442:A 1.6 
*END

*D_NET *210 0.0300728
*CONN
*I *1438:A I *D sky130_fd_sc_hd__or2_1
*I *1479:A I *D sky130_fd_sc_hd__and3_2
*I *1443:B I *D sky130_fd_sc_hd__or3b_1
*I *1449:C I *D sky130_fd_sc_hd__nand3b_4
*I *1437:A I *D sky130_fd_sc_hd__nor2_4
*I *1384:A I *D sky130_fd_sc_hd__inv_2
*I *1572:X O *D sky130_fd_sc_hd__clkbuf_4
*CAP
1 *1438:A 0.000481273
2 *1479:A 9.10328e-05
3 *1443:B 0.00167815
4 *1449:C 0.000100536
5 *1437:A 8.12918e-05
6 *1384:A 0.000340026
7 *1572:X 0.00179348
8 *210:56 0.00214313
9 *210:32 0.00227165
10 *210:28 0.00105197
11 *210:22 0.00272246
12 *210:10 0.000840831
13 *210:6 0.00254442
14 *210:28 *223:10 0.000463466
15 *210:56 *222:39 0.00107868
16 *1395:A1 *210:6 0.00027299
17 *1395:A2 *210:6 8.88631e-05
18 *1396:B1 *210:6 4.66108e-05
19 *1404:A *210:22 0.000279995
20 *1413:B1 *1449:C 0.000103738
21 *1436:A *1449:C 0.000154977
22 *1436:A *210:32 0
23 *1459:B *1437:A 0.00018955
24 *1459:B *210:56 0.000232411
25 *1462:B *1443:B 9.50342e-06
26 *1471:A3 *210:10 0
27 *1472:A1 *1443:B 8.43003e-05
28 *1479:C *1479:A 7.20926e-05
29 *1481:C1 *210:56 0.000293285
30 *1483:B *210:28 0
31 *1483:B *210:32 0
32 *1483:B *210:56 0.000556135
33 *1502:A1 *210:32 8.47798e-05
34 *1502:A1 *210:56 0
35 *1511:A1 *210:10 0.000311318
36 *1511:A1 *210:22 9.43739e-05
37 *1518:B1 *1438:A 4.66108e-05
38 *1525:C *1437:A 9.96415e-05
39 *1525:C *210:56 0.000134029
40 *1531:B *210:56 5.11279e-05
41 *1531:C *210:56 0
42 *1533:A *1438:A 0.000118081
43 *1533:B *210:10 0.00046049
44 *1538:A3 *210:56 0.000501043
45 *1558:B1 *210:56 0.000213973
46 *31:14 *210:28 0
47 *32:39 *210:22 0.000924496
48 *32:52 *210:10 0.000153058
49 *32:52 *210:22 0.000360378
50 *53:8 *210:22 8.23457e-05
51 *61:22 *1438:A 0.000385046
52 *66:36 *210:22 0.000131937
53 *72:12 *1384:A 0.000447004
54 *95:28 *210:32 0.000444849
55 *102:28 *1438:A 3.83194e-05
56 *117:12 *210:22 0.00066877
57 *129:36 *1438:A 0.000182282
58 *130:89 *210:56 0.000323347
59 *133:44 *210:56 0
60 *134:33 *1479:A 0.000263978
61 *137:63 *1443:B 3.60409e-05
62 *143:30 *1443:B 0
63 *147:25 *1449:C 0.00012644
64 *179:20 *1449:C 0.000119762
65 *179:20 *210:28 0
66 *179:46 *210:56 0
67 *180:23 *1479:A 0.000119251
68 *180:23 *210:28 0.000100728
69 *180:23 *210:32 0.000109128
70 *181:18 *1443:B 0.000178358
71 *194:24 *1443:B 2.739e-05
72 *195:20 *210:28 0.00018955
73 *196:26 *210:56 0
74 *203:31 *210:6 0.000354495
75 *204:34 *1443:B 0.00171237
76 *204:34 *210:28 0.000411116
*RES
1 *1572:X *210:6 28.27 
2 *210:6 *210:10 9.5 
3 *210:10 *210:22 22.05 
4 *210:22 *210:28 13.91 
5 *210:28 *210:32 10.01 
6 *210:32 *210:56 43.525 
7 *210:56 *1384:A 8.605 
8 *210:32 *1437:A 3.79 
9 *210:28 *1449:C 7.155 
10 *210:22 *1443:B 30.74 
11 *210:10 *1479:A 6.12 
12 *210:6 *1438:A 15.2 
*END

*D_NET *211 0.0259022
*CONN
*I *1409:B I *D sky130_fd_sc_hd__and4_1
*I *1397:A I *D sky130_fd_sc_hd__nand2_2
*I *1387:A I *D sky130_fd_sc_hd__buf_4
*I *1408:A1 I *D sky130_fd_sc_hd__a22o_1
*I *1573:X O *D sky130_fd_sc_hd__clkbuf_2
*CAP
1 *1409:B 9.86787e-05
2 *1397:A 0.00122277
3 *1387:A 0.000692274
4 *1408:A1 6.76259e-05
5 *1573:X 0.00126765
6 *211:56 0.00238827
7 *211:24 0.00246469
8 *211:8 0.00403926
9 *1397:A *230:41 0.000142052
10 *1397:A *230:54 8.16041e-05
11 *211:24 *1514:A1 3.20039e-05
12 *211:24 *1581:A 3.92756e-05
13 *1404:A *1409:B 8.5242e-05
14 *1404:A *211:56 0.000408139
15 *1422:B *211:24 6.33291e-05
16 *1431:A1 *1397:A 6.65534e-05
17 *1431:A1 *211:56 0.000137136
18 *1448:B *1409:B 4.77719e-05
19 *1458:A1 *211:56 0.00063951
20 *1461:A_N *211:24 0.000262169
21 *1461:A_N *211:56 0.000604723
22 *1463:A *1397:A 0.000288545
23 *1463:B *1397:A 0.000544676
24 *1495:B *211:24 0.000184876
25 *1514:B1 *1387:A 0.00012677
26 *1521:A2 *211:24 0.000160635
27 *1521:A3 *211:24 0.000228653
28 *1521:B1 *211:24 0.000250088
29 *1528:B *1409:B 4.75576e-05
30 *1528:B *211:56 1.07797e-05
31 *1551:A *1397:A 0.000134509
32 *1552:C *1387:A 0.000120116
33 *1552:C *1408:A1 0.000212299
34 *1553:A *1387:A 8.35984e-05
35 *1558:A1 *1387:A 0.000136054
36 *30:10 *211:56 0.00043064
37 *47:20 *1387:A 0.000119873
38 *47:43 *1387:A 0.000183423
39 *53:76 *1387:A 0.000559412
40 *53:76 *211:24 0.000598276
41 *55:14 *211:56 6.72196e-05
42 *63:10 *211:24 6.57653e-06
43 *68:10 *211:24 0.000369544
44 *117:12 *211:56 0.00166676
45 *130:51 *1397:A 8.53113e-06
46 *135:22 *1387:A 0.000112689
47 *135:22 *1408:A1 0.000169195
48 *142:123 *211:24 1.7635e-05
49 *152:16 *1408:A1 2.23485e-05
50 *153:12 *1397:A 4.66108e-05
51 *153:12 *211:56 0.000855266
52 *169:10 *211:56 1.05827e-05
53 *170:18 *211:8 0.00191975
54 *173:12 *211:24 0
55 *176:24 *211:24 6.19524e-05
56 *184:20 *211:24 4.1588e-05
57 *188:81 *211:8 0.000615012
58 *195:20 *211:24 8.0494e-05
59 *195:20 *211:56 0.000164221
60 *200:24 *211:8 0.000346914
61 *201:71 *1409:B 4.77757e-05
*RES
1 *1573:X *211:8 32.34 
2 *211:8 *211:24 26.5987 
3 *211:24 *1408:A1 6.1275 
4 *211:24 *1387:A 17.9925 
5 *211:8 *211:56 35.385 
6 *211:56 *1397:A 24.295 
7 *211:56 *1409:B 5.52 
*END

*D_NET *212 0.0243888
*CONN
*I *1581:A I *D sky130_fd_sc_hd__buf_2
*I *1521:X O *D sky130_fd_sc_hd__a31o_1
*CAP
1 *1581:A 0.00657762
2 *1521:X 0.00657762
3 *1581:A *1503:A1 0.000118407
4 out[0] *1581:A 1.17114e-05
5 *1448:B *1581:A 0.000463197
6 *1455:A2 *1581:A 0.000718283
7 *1488:A1 *1581:A 0.000323051
8 *1493:A *1581:A 0.000964161
9 *1493:B *1581:A 0.00164734
10 *1503:B1 *1581:A 0.0012822
11 *1538:C1 *1581:A 0
12 *1546:B2 *1581:A 0.000427073
13 *1560:A *1581:A 0.000284983
14 *1560:C *1581:A 0.00028423
15 *65:12 *1581:A 0
16 *78:22 *1581:A 0.00132851
17 *102:28 *1581:A 0.000256743
18 *114:12 *1581:A 0.000517726
19 *149:87 *1581:A 0.000129735
20 *155:20 *1581:A 0.000470347
21 *158:49 *1581:A 2.3038e-05
22 *176:24 *1581:A 0.00155015
23 *176:28 *1581:A 3.99339e-05
24 *183:53 *1581:A 0.00010833
25 *196:122 *1581:A 0.000245094
26 *211:24 *1581:A 3.92756e-05
*RES
1 *1521:X *1581:A 28.9055 
*END

*D_NET *213 0.0287527
*CONN
*I *1582:A I *D sky130_fd_sc_hd__buf_2
*I *1532:X O *D sky130_fd_sc_hd__dlymetal6s2s_1
*CAP
1 *1582:A 0.000148788
2 *1532:X 0.00220182
3 *213:32 0.00184618
4 *213:30 0.00402254
5 *213:18 0.00452696
6 *213:18 *1588:A 0.00106195
7 *213:18 *219:30 3.74864e-05
8 *213:30 *1553:B 0
9 *213:32 *1583:A 0.00385141
10 out[1] *213:32 0
11 *1430:A *213:18 0.000151051
12 *1430:B *213:18 0.000281406
13 *1433:A2 *213:30 4.77757e-05
14 *1456:B *213:30 0.000200615
15 *1456:B *213:32 0.00230346
16 *1477:A1 *213:30 0
17 *1489:B *213:32 0
18 *1501:B *213:30 5.39961e-05
19 *1502:B1 *213:30 0.000416391
20 *1503:B1 *213:30 2.37037e-05
21 *1536:B1 *213:30 0.000605362
22 *1538:A2 *213:30 0.000177453
23 *1553:A *213:30 0
24 *47:20 *213:30 3.50033e-05
25 *50:29 *213:32 0.00028331
26 *62:18 *213:32 0.000498311
27 *80:14 *213:30 0.000199734
28 *87:12 *213:32 0.00239112
29 *133:60 *213:30 0.00119613
30 *133:75 *213:30 0.000122331
31 *174:22 *213:18 0.00206845
*RES
1 *1532:X *213:18 43.32 
2 *213:18 *213:30 41.595 
3 *213:30 *213:32 66.66 
4 *213:32 *1582:A 5.775 
*END

*D_NET *214 0.0117907
*CONN
*I *1583:A I *D sky130_fd_sc_hd__buf_2
*I *1540:X O *D sky130_fd_sc_hd__a31o_1
*CAP
1 *1583:A 0.00112872
2 *1540:X 0.00136124
3 *214:8 0.00248996
4 *214:8 *227:106 6.65551e-05
5 out[2] *1583:A 6.16226e-06
6 *1489:A *1583:A 0.00210003
7 *1489:B *1583:A 0
8 *50:29 *1583:A 0.000786646
9 *213:32 *1583:A 0.00385141
*RES
1 *1540:X *214:8 17.85 
2 *214:8 *1583:A 49.905 
*END

*D_NET *215 0.0121948
*CONN
*I *1584:A I *D sky130_fd_sc_hd__buf_2
*I *1549:X O *D sky130_fd_sc_hd__a221o_1
*CAP
1 *1584:A 0.000905205
2 *1549:X 0.000833499
3 *215:16 0.00307164
4 *215:12 0.00299993
5 *1584:A *1475:A 0
6 *215:16 *1503:A1 2.75145e-05
7 *1404:A *215:12 0.0002593
8 *1431:A1 *215:16 1.74678e-05
9 *1431:A2 *215:16 0.000160314
10 *1431:B1 *215:16 0.000394053
11 *1480:B *1584:A 0
12 *1503:C1 *215:16 2.20014e-05
13 *1515:A2 *1584:A 0.0015798
14 *1517:B *215:16 1.91597e-05
15 *1528:B *215:12 0.000258427
16 *1549:A1 *215:12 0.000122801
17 *1549:B1 *215:12 0.000419903
18 *1549:C1 *215:12 0.000159194
19 *175:20 *215:16 1.91597e-05
20 *183:53 *215:16 9.47972e-06
21 *183:70 *215:16 0.000195856
22 *186:65 *215:12 1.15078e-05
23 *194:18 *215:16 0.00018955
24 *209:85 *215:16 0.000518991
*RES
1 *1549:X *215:12 17.84 
2 *215:12 *215:16 34.535 
3 *215:16 *1584:A 23.46 
*END

*D_NET *216 0.00198866
*CONN
*I *1585:A I *D sky130_fd_sc_hd__buf_2
*I *1561:X O *D sky130_fd_sc_hd__clkbuf_1
*CAP
1 *1585:A 0.000477896
2 *1561:X 0.000477896
3 *1515:B1_N *1585:A 0.000308177
4 *182:14 *1585:A 0.000308177
5 *188:69 *1585:A 0.000416515
*RES
1 *1561:X *1585:A 15.81 
*END

*D_NET *217 0.0109175
*CONN
*I *1586:A I *D sky130_fd_sc_hd__buf_2
*I *1481:X O *D sky130_fd_sc_hd__a211o_1
*CAP
1 *1586:A 0.00110777
2 *1481:X 0.00315669
3 *217:8 0.00426446
4 *1586:A *227:106 0.000543092
5 *1486:B *1586:A 0.000307339
6 *1522:A1 *1586:A 0.000297708
7 *51:14 *1586:A 0.000160521
8 *131:8 *1586:A 0.000293013
9 *131:48 *1586:A 0.0003672
10 *136:108 *1586:A 0.000348398
11 *179:46 *217:8 7.12669e-05
*RES
1 *1481:X *217:8 37.17 
2 *217:8 *1586:A 30.69 
*END

*D_NET *218 0.00470293
*CONN
*I *1587:A I *D sky130_fd_sc_hd__buf_2
*I *1505:X O *D sky130_fd_sc_hd__a21o_1
*CAP
1 *1587:A 0.00133824
2 *1505:X 0.00133824
3 *1587:A *1540:A1 8.41384e-05
4 *1401:B1_N *1587:A 1.32102e-05
5 *1540:A2 *1587:A 1.11338e-05
6 *1540:B1 *1587:A 4.77769e-05
7 *1552:B *1587:A 9.6227e-05
8 *46:12 *1587:A 9.06796e-05
9 *49:71 *1587:A 0
10 *53:78 *1587:A 3.44615e-05
11 *133:60 *1587:A 0.000122801
12 *134:109 *1587:A 0.00119921
13 *134:150 *1587:A 7.23635e-05
14 *135:22 *1587:A 7.27003e-05
15 *188:18 *1587:A 0.00011379
16 *204:46 *1587:A 6.79659e-05
*RES
1 *1505:X *1587:A 33.085 
*END

*D_NET *219 0.0288888
*CONN
*I *1588:A I *D sky130_fd_sc_hd__buf_6
*I *1516:X O *D sky130_fd_sc_hd__a31o_4
*CAP
1 *1588:A 0.000755508
2 *1516:X 0.00517407
3 *219:30 0.00592958
4 *1588:A *1553:B 0.000270097
5 *219:30 *227:23 1.15688e-05
6 *219:30 *229:20 0.00279481
7 *219:30 *229:47 0.00248267
8 out[7] *1588:A 6.69608e-06
9 *1465:A1 *219:30 0.000589075
10 *1476:A *1588:A 0.000235335
11 *1516:A3 *219:30 0.000279671
12 *1531:A *219:30 0.00118351
13 *1532:A *219:30 0
14 *1549:A2 *219:30 0.000387273
15 *49:71 *1588:A 0.000241226
16 *50:12 *1588:A 0.00218038
17 *104:26 *219:30 0
18 *120:8 *1588:A 0.000504304
19 *120:8 *219:30 0.000221074
20 *121:10 *219:30 0.000924085
21 *130:99 *219:30 0.000621658
22 *136:16 *219:30 0.000173755
23 *173:12 *219:30 0.0011733
24 *174:22 *219:30 0.00147169
25 *207:10 *219:30 0.000163288
26 *207:25 *219:30 1.47539e-05
27 *213:18 *1588:A 0.00106195
28 *213:18 *219:30 3.74864e-05
*RES
1 *1516:X *219:30 48.8491 
2 *219:30 *1588:A 32.08 
*END

*D_NET *220 0.0161662
*CONN
*I *1590:A I *D sky130_fd_sc_hd__dlygate4sd1_1
*I *1542:B I *D sky130_fd_sc_hd__nand2_1
*I *1589:X O *D sky130_fd_sc_hd__dlygate4sd1_1
*CAP
1 *1590:A 1.65033e-05
2 *1542:B 0.0017368
3 *1589:X 0.00247
4 *220:22 0.00207464
5 *220:20 0.00279134
6 *220:20 *224:8 0.000413595
7 *1406:B *220:20 0.000109849
8 *1434:A *1542:B 0.00018695
9 *1434:C *1542:B 1.83194e-05
10 *1461:A_N *220:22 9.58678e-06
11 *1461:C *220:22 0
12 *1471:C1 *220:20 8.53113e-06
13 *1476:A *1542:B 0.000439759
14 *1523:B2 *1542:B 0.000115347
15 *1525:C *220:20 0.000583847
16 *1538:A1 *1542:B 9.60712e-05
17 *1538:A3 *1542:B 5.36958e-05
18 *1542:A *1542:B 0.000550915
19 *1551:A *220:20 9.14049e-05
20 *35:12 *1590:A 4.66108e-05
21 *35:61 *220:22 0.000193818
22 *35:71 *220:20 0
23 *48:16 *1542:B 1.0121e-05
24 *107:12 *1542:B 0.000574447
25 *137:43 *220:20 0.000638747
26 *137:55 *220:20 0.000125362
27 *144:30 *1590:A 2.49909e-05
28 *152:16 *1542:B 0.000564706
29 *152:16 *220:22 0.000646314
30 *158:49 *1542:B 0.000308719
31 *158:49 *220:20 8.15318e-05
32 *158:49 *220:22 0
33 *168:36 *1542:B 0
34 *178:12 *1542:B 2.49993e-05
35 *186:24 *220:20 0.00115867
*RES
1 *1589:X *220:20 48.9225 
2 *220:20 *220:22 7.8825 
3 *220:22 *1542:B 40.455 
4 *220:22 *1590:A 4.05 
*END

*D_NET *221 0.000878173
*CONN
*I *1540:A1 I *D sky130_fd_sc_hd__a31o_1
*I *1590:X O *D sky130_fd_sc_hd__dlygate4sd1_1
*CAP
1 *1540:A1 0.000144911
2 *1590:X 0.000144911
3 *1540:A1 *227:106 0.000412908
4 *1401:B1_N *1540:A1 7.18107e-06
5 *1540:B1 *1540:A1 2.08502e-05
6 *1587:A *1540:A1 8.41384e-05
7 *144:30 *1540:A1 6.3272e-05
*RES
1 *1590:X *1540:A1 7.46 
*END

*D_NET *222 0.0344787
*CONN
*I *1409:D I *D sky130_fd_sc_hd__and4_1
*I *1399:A2 I *D sky130_fd_sc_hd__a22oi_4
*I *1390:A I *D sky130_fd_sc_hd__buf_4
*I *1400:C I *D sky130_fd_sc_hd__and4_2
*I *1574:X O *D sky130_fd_sc_hd__buf_2
*CAP
1 *1409:D 0.000410966
2 *1399:A2 0.00157382
3 *1390:A 0.000384337
4 *1400:C 0.000549497
5 *1574:X 0.00105124
6 *222:45 0.00418386
7 *222:39 0.0042608
8 *222:10 0.00322487
9 *1400:C *225:14 0.000277467
10 *1409:D *230:41 0.000356938
11 *222:39 *1447:A2 5.74791e-05
12 *1399:A1 *1399:A2 1.33269e-05
13 *1408:A2 *1400:C 9.24075e-05
14 *1430:A *222:39 0.000306203
15 *1444:A *1390:A 0.000721097
16 *1444:A *1399:A2 0.000332178
17 *1450:A1 *1399:A2 0.000634284
18 *1455:A2 *222:45 0.00229526
19 *1475:B *1399:A2 0.00034434
20 *1478:A *1399:A2 1.96856e-05
21 *1478:B *1399:A2 0.000160651
22 *1480:B *1399:A2 0.000112284
23 *1480:B *222:45 0
24 *1492:A2 *1399:A2 4.2444e-05
25 *1504:B1 *222:45 0.000442685
26 *1511:A2 *1409:D 0.000184407
27 *1539:A2 *222:39 0.000344845
28 *1544:A *222:39 0
29 *1548:A2 *1399:A2 0.000337371
30 *1548:A3 *1399:A2 1.34361e-05
31 *1558:B1 *222:39 0.00013959
32 *49:12 *1399:A2 4.22944e-05
33 *65:12 *1399:A2 0.00018305
34 *69:14 *1409:D 9.9181e-05
35 *91:26 *1400:C 0.000104118
36 *95:28 *222:39 0
37 *103:12 *1400:C 0
38 *112:10 *1409:D 0.00083065
39 *112:10 *222:39 0.00151059
40 *122:20 *1400:C 3.72081e-05
41 *128:8 *1400:C 0.000101062
42 *130:51 *222:45 0.000431792
43 *134:6 *1390:A 0.000376508
44 *134:12 *1390:A 1.08758e-05
45 *142:94 *1390:A 0.000718735
46 *142:94 *1399:A2 0.000325575
47 *142:170 *1399:A2 0.000863463
48 *143:30 *222:45 1.45731e-05
49 *167:24 *222:45 0.000743815
50 *179:46 *222:39 0
51 *184:20 *1400:C 9.23804e-06
52 *184:20 *222:10 0.000121659
53 *184:20 *222:39 0.000799829
54 *195:20 *1409:D 0.000265659
55 *195:20 *222:39 0.00150943
56 *201:71 *1409:D 0.00037595
57 *202:48 *1399:A2 0.000125751
58 *206:62 *222:10 0.000520108
59 *206:62 *222:39 0.00041111
60 *210:56 *222:39 0.00107868
*RES
1 *1574:X *222:10 16.57 
2 *222:10 *1400:C 17.18 
3 *222:10 *222:39 48.9975 
4 *222:39 *222:45 6.282 
5 *222:45 *1390:A 15.9075 
6 *222:45 *1399:A2 45.2125 
7 *222:39 *1409:D 17.3325 
*END

*D_NET *223 0.00365345
*CONN
*I *1592:A I *D sky130_fd_sc_hd__clkbuf_2
*I *1457:A2 I *D sky130_fd_sc_hd__a21oi_1
*I *1591:X O *D sky130_fd_sc_hd__dlymetal6s2s_1
*CAP
1 *1592:A 8.28219e-05
2 *1457:A2 0
3 *1591:X 0.000462931
4 *223:10 0.000545753
5 *1413:A3 *223:10 0.000192488
6 *1419:C *1592:A 1.92638e-05
7 *1419:C *223:10 0.000256309
8 *1457:A1 *223:10 0.00013457
9 *1483:B *1592:A 0
10 *1591:A *223:10 0.000119246
11 *40:33 *223:10 0.000129177
12 *117:12 *1592:A 4.66108e-05
13 *128:12 *1592:A 4.66108e-05
14 *180:23 *1592:A 0.000136877
15 *180:23 *223:10 0.00101733
16 *210:28 *223:10 0.000463466
*RES
1 *1591:X *223:10 19.155 
2 *223:10 *1457:A2 3.6 
3 *223:10 *1592:A 5.685 
*END

*D_NET *224 0.0126367
*CONN
*I *1453:A1 I *D sky130_fd_sc_hd__a21oi_2
*I *1454:B I *D sky130_fd_sc_hd__and3_4
*I *1450:B1 I *D sky130_fd_sc_hd__o31a_2
*I *1472:A2 I *D sky130_fd_sc_hd__a21o_1
*I *1592:X O *D sky130_fd_sc_hd__clkbuf_2
*CAP
1 *1453:A1 0
2 *1454:B 8.28908e-05
3 *1450:B1 0.000538726
4 *1472:A2 4.72639e-05
5 *1592:X 0.000978608
6 *224:31 0.000965926
7 *224:23 0.000552528
8 *224:8 0.00123409
9 *1450:B1 *1512:A2 6.16226e-06
10 *224:31 *1448:A 0.000472723
11 *1386:B *224:8 0.000122699
12 *1441:B *224:8 0.000146679
13 *1450:A1 *1450:B1 4.66108e-05
14 *1450:A2 *1450:B1 0.000156356
15 *1450:A3 *1450:B1 1.52352e-05
16 *1453:B1 *224:23 4.77757e-05
17 *1454:C *1454:B 0.000455089
18 *1454:C *224:31 0.000743472
19 *1470:B *224:8 0.000193942
20 *1472:A1 *1472:A2 9.50342e-06
21 *1489:B *1454:B 0.000443774
22 *1489:B *224:31 0.000816105
23 *1492:A2 *1450:B1 1.16854e-05
24 *1517:B *1472:A2 6.93342e-05
25 *1517:B *224:23 0.000119039
26 *1517:B *224:31 0.000321662
27 *1548:C1 *1450:B1 2.0794e-05
28 *1548:C1 *224:31 3.83194e-05
29 *1549:B2 *224:8 2.20014e-05
30 *1550:A2 *224:8 3.23956e-05
31 *35:71 *224:8 0.000301999
32 *44:8 *224:8 4.66108e-05
33 *117:12 *224:8 0.00030615
34 *128:12 *224:8 0.000270415
35 *142:170 *1450:B1 0.000649453
36 *149:67 *1472:A2 0.000138266
37 *149:67 *224:23 0.00021594
38 *175:20 *224:8 0.000283987
39 *175:28 *224:8 0.000630454
40 *176:24 *224:8 0.00037473
41 *192:20 *224:31 7.81221e-05
42 *192:30 *224:23 1.14169e-05
43 *194:18 *1450:B1 0.000198344
44 *197:10 *224:23 5.83121e-06
45 *220:20 *224:8 0.000413595
*RES
1 *1592:X *224:8 26.13 
2 *224:8 *1472:A2 5.235 
3 *224:8 *224:23 6.485 
4 *224:23 *224:31 17.41 
5 *224:31 *1450:B1 17.78 
6 *224:31 *1454:B 5.845 
7 *224:23 *1453:A1 1.6 
*END

*D_NET *225 0.0380383
*CONN
*I *1399:B1 I *D sky130_fd_sc_hd__a22oi_4
*I *1395:B1 I *D sky130_fd_sc_hd__a22o_1
*I *1400:D I *D sky130_fd_sc_hd__and4_2
*I *1393:A I *D sky130_fd_sc_hd__buf_4
*I *1575:X O *D sky130_fd_sc_hd__buf_2
*CAP
1 *1399:B1 0.000636935
2 *1395:B1 0
3 *1400:D 5.72325e-05
4 *1393:A 0.00124654
5 *1575:X 0.000785981
6 *225:103 0.00140609
7 *225:84 0.00181707
8 *225:74 0.00217806
9 *225:14 0.00155809
10 *225:10 0.00217045
11 *1393:A *227:23 0.000177127
12 *1399:B1 *1448:A 5.05437e-05
13 *225:10 *228:35 0.000673214
14 *225:74 *1400:A 0.000395794
15 *225:74 *228:35 0.000107432
16 *225:84 *230:10 0.000547885
17 *225:103 *1506:B 0.000236643
18 *1396:A2 *225:84 0
19 *1396:A2 *225:103 0
20 *1396:B1 *225:84 0.000231102
21 *1399:A1 *1399:B1 0.00252791
22 *1400:C *225:14 0.000277467
23 *1404:A *225:103 8.65961e-05
24 *1408:A2 *225:14 0.000112478
25 *1417:A_N *225:74 0.000268051
26 *1448:B *1399:B1 0.000943358
27 *1465:A2 *225:74 0.000266375
28 *1467:B *225:74 8.44437e-05
29 *1471:B1 *1399:B1 2.49909e-05
30 *1471:C1 *1399:B1 4.51981e-05
31 *1474:B *1393:A 0.00162488
32 *1480:B *225:74 0.00016751
33 *1486:A *1393:A 9.32216e-05
34 *1488:A1 *1399:B1 6.47255e-05
35 *1488:A3 *1399:B1 0.000307138
36 *1488:B1 *225:103 0.000176067
37 *1504:B1 *225:74 0.000365024
38 *1509:A1 *1393:A 2.92496e-05
39 *1509:A2 *1393:A 3.67779e-05
40 *1510:B *1393:A 0.00159024
41 *1510:C *1393:A 5.16348e-05
42 *1516:A1 *225:84 8.38108e-05
43 *1516:A3 *225:84 0.000164905
44 *1517:B *1399:B1 4.95818e-05
45 *1518:A2 *225:103 8.46619e-05
46 *1550:B1 *225:84 7.23602e-05
47 *1591:A *225:74 0.000159957
48 *40:14 *225:84 0.000378832
49 *41:27 *225:84 0.000375154
50 *47:20 *1393:A 4.77757e-05
51 *53:32 *225:74 0.00090055
52 *57:27 *1393:A 0.000206358
53 *70:22 *225:74 0.000993626
54 *71:12 *225:74 0.00157614
55 *71:12 *225:84 0.000663048
56 *80:14 *1393:A 0.000804117
57 *103:12 *1393:A 0
58 *103:12 *225:14 0
59 *109:18 *225:74 1.46216e-05
60 *109:18 *225:84 0.00129474
61 *128:8 *1393:A 0.000163019
62 *128:8 *225:14 0.000658696
63 *130:99 *225:74 0.000176898
64 *133:137 *225:84 0.000150113
65 *133:146 *225:84 1.56296e-05
66 *133:146 *225:103 0.000397436
67 *133:164 *225:103 0.00174108
68 *136:61 *225:84 0.000229536
69 *143:10 *1399:B1 0.000610019
70 *144:30 *225:10 0.000487944
71 *144:30 *225:74 0.000183404
72 *148:12 *225:103 9.14049e-05
73 *149:48 *225:103 0.000671776
74 *155:20 *1399:B1 0.000216751
75 *168:36 *1393:A 7.06865e-05
76 *192:10 *1399:B1 8.65905e-05
77 *193:8 *225:74 0.000242463
78 *196:122 *1399:B1 0.000458684
79 *201:33 *1400:D 8.8266e-05
80 *208:10 *225:103 0
81 *209:16 *225:84 8.08153e-06
*RES
1 *1575:X *225:10 17.005 
2 *225:10 *225:14 10.01 
3 *225:14 *1393:A 46.83 
4 *225:14 *1400:D 4.74 
5 *225:10 *225:74 44.0325 
6 *225:74 *225:84 36.4525 
7 *225:84 *1395:B1 3.6 
8 *225:84 *225:103 32.385 
9 *225:103 *1399:B1 30.265 
*END

*D_NET *226 0.0216331
*CONN
*I *1557:A1 I *D sky130_fd_sc_hd__o22a_1
*I *1555:A2 I *D sky130_fd_sc_hd__a31o_1
*I *1469:A I *D sky130_fd_sc_hd__or2_1
*I *1553:B I *D sky130_fd_sc_hd__nor2_2
*I *1558:A2 I *D sky130_fd_sc_hd__a21oi_1
*I *1452:A I *D sky130_fd_sc_hd__nand2_4
*I *1576:X O *D sky130_fd_sc_hd__buf_2
*CAP
1 *1557:A1 0.000318065
2 *1555:A2 0
3 *1469:A 0.000840591
4 *1553:B 0.00102114
5 *1558:A2 0
6 *1452:A 0
7 *1576:X 0.000624805
8 *226:76 0.000485792
9 *226:48 0.003204
10 *226:27 0.00178343
11 *226:14 0.00134051
12 *226:10 0.00169187
13 *226:10 *229:14 0.000279291
14 *1452:B *226:27 0.000157919
15 *1469:B *1469:A 0.000168498
16 *1477:A1 *1553:B 2.50049e-05
17 *1501:C_N *1469:A 0.000397541
18 *1501:C_N *1553:B 0.000739316
19 *1503:B1 *1553:B 0.000178099
20 *1505:A2 *226:48 3.80525e-05
21 *1521:A3 *226:48 0.000120966
22 *1530:C_N *226:48 3.83194e-05
23 *1538:A2 *1553:B 0
24 *1544:A *226:27 0.000381896
25 *1544:B *226:14 0.00122343
26 *1544:B *226:27 0.00020127
27 *1546:A1 *226:48 7.9642e-06
28 *1555:A1 *1557:A1 0.000312176
29 *1558:A1 *226:27 2.11195e-05
30 *1558:A1 *226:48 2.01565e-05
31 *1558:B1 *226:27 0.000201817
32 *1559:B1 *226:27 1.90838e-05
33 *1588:A *1553:B 0.000270097
34 *45:33 *1469:A 0.000431179
35 *45:33 *1553:B 0.000391822
36 *53:76 *226:48 0.000157282
37 *59:8 *1469:A 0.000141599
38 *114:12 *226:48 1.03503e-05
39 *136:108 *1553:B 0
40 *137:28 *226:48 4.77719e-05
41 *142:112 *1469:A 0.000377109
42 *143:30 *1469:A 4.23439e-05
43 *151:22 *1469:A 0.000377638
44 *158:49 *226:48 5.1985e-06
45 *176:28 *226:48 3.75093e-05
46 *181:107 *1557:A1 0.000346985
47 *181:107 *226:76 2.98644e-05
48 *181:115 *1557:A1 9.12494e-06
49 *181:115 *226:10 0.000288524
50 *181:115 *226:76 0.000347589
51 *188:6 *1469:A 2.39856e-05
52 *196:26 *226:27 0.00129685
53 *196:26 *226:48 0.00115819
54 *196:47 *1469:A 0
55 *213:30 *1553:B 0
*RES
1 *1576:X *226:10 12.645 
2 *226:10 *226:14 17.975 
3 *226:14 *1452:A 1.6 
4 *226:14 *226:27 14.73 
5 *226:27 *1558:A2 1.6 
6 *226:27 *226:48 25.905 
7 *226:48 *1553:B 25.395 
8 *226:48 *1469:A 22.545 
9 *226:10 *226:76 4.185 
10 *226:76 *1555:A2 3.6 
11 *226:76 *1557:A1 10.65 
*END

*D_NET *227 0.0292816
*CONN
*I *1475:A I *D sky130_fd_sc_hd__nand2_2
*I *1445:A2 I *D sky130_fd_sc_hd__a21oi_1
*I *1446:A2 I *D sky130_fd_sc_hd__o22a_1
*I *1440:A I *D sky130_fd_sc_hd__nor2_1
*I *1447:A2 I *D sky130_fd_sc_hd__a311o_1
*I *1474:A I *D sky130_fd_sc_hd__or2_2
*I *1577:X O *D sky130_fd_sc_hd__buf_2
*CAP
1 *1475:A 0.000194784
2 *1445:A2 3.16814e-05
3 *1446:A2 0
4 *1440:A 0
5 *1447:A2 0.00162016
6 *1474:A 0
7 *1577:X 0.00104097
8 *227:108 0.00126418
9 *227:106 0.0030317
10 *227:81 0.0023241
11 *227:66 0.0007926
12 *227:23 0.00257075
13 *227:8 0.00152908
14 *227:23 *228:35 0.000157393
15 *227:66 *228:35 0.000744536
16 *227:108 *228:66 3.2723e-05
17 *1393:A *227:23 0.000177127
18 *1402:A *227:81 8.30853e-06
19 *1418:B *1447:A2 0.000408862
20 *1431:A2 *1475:A 0
21 *1444:A *227:106 0.000508015
22 *1445:A1 *1445:A2 5.83121e-06
23 *1445:B1 *227:108 0.000340926
24 *1446:A1 *227:81 9.91723e-05
25 *1446:B2 *227:81 4.77757e-05
26 *1446:B2 *227:106 0.000161474
27 *1447:B1 *1447:A2 0.000632686
28 *1461:B *227:81 4.86958e-05
29 *1461:B *227:106 0.000185593
30 *1474:B *227:23 0.000310394
31 *1475:B *1475:A 4.77757e-05
32 *1486:B *227:108 0.00118512
33 *1489:A *1475:A 1.20052e-05
34 *1489:A *227:106 0.000339003
35 *1491:A_N *227:23 0
36 *1510:A *227:23 7.47284e-05
37 *1515:A1 *227:108 6.16226e-06
38 *1516:A3 *227:23 0.000363976
39 *1531:C *1447:A2 1.13144e-05
40 *1540:A1 *227:106 0.000412908
41 *1542:A *227:66 2.69217e-05
42 *1557:A2 *1447:A2 0.000212703
43 *1559:B1 *227:81 0.000193425
44 *1584:A *1475:A 0
45 *1586:A *227:106 0.000543092
46 *35:12 *227:106 0.000223115
47 *48:16 *227:8 5.30673e-05
48 *48:16 *227:23 3.90495e-05
49 *49:12 *1475:A 1.16854e-05
50 *53:32 *1447:A2 7.76471e-05
51 *53:32 *227:23 0.000157611
52 *57:10 *227:23 0.000406623
53 *71:12 *1447:A2 0.000154956
54 *91:26 *1447:A2 0.000389374
55 *103:12 *1447:A2 0.00103027
56 *104:26 *1447:A2 0.000222737
57 *130:99 *227:23 0.000256641
58 *131:48 *227:106 0.000106582
59 *133:44 *1447:A2 0.000183908
60 *133:44 *227:23 0
61 *134:107 *227:106 0.00012369
62 *136:108 *227:106 0.000396236
63 *142:112 *227:106 0.000552515
64 *144:30 *227:23 9.02009e-05
65 *144:30 *227:66 0.000720549
66 *144:30 *227:106 2.19562e-06
67 *145:26 *227:66 2.98644e-05
68 *145:26 *227:81 0.000732745
69 *164:23 *1447:A2 4.24818e-05
70 *174:24 *227:66 3.24295e-05
71 *183:131 *227:106 8.53224e-05
72 *190:32 *227:66 0.000375537
73 *199:31 *227:66 0.000135831
74 *205:12 *1447:A2 1.77665e-05
75 *205:21 *1447:A2 2.14655e-05
76 *206:62 *1447:A2 0.000374356
77 *206:62 *227:81 0.000400858
78 *214:8 *227:106 6.65551e-05
79 *219:30 *227:23 1.15688e-05
80 *222:39 *1447:A2 5.74791e-05
*RES
1 *1577:X *227:8 16.465 
2 *227:8 *1474:A 1.6 
3 *227:8 *227:23 19.6 
4 *227:23 *1447:A2 42.195 
5 *227:23 *227:66 18.97 
6 *227:66 *1440:A 1.6 
7 *227:66 *227:81 13.855 
8 *227:81 *1446:A2 1.6 
9 *227:81 *227:106 42.735 
10 *227:106 *227:108 22.545 
11 *227:108 *1445:A2 4.05 
12 *227:108 *1475:A 6.735 
*END

*D_NET *228 0.0309775
*CONN
*I *1499:B I *D sky130_fd_sc_hd__nor2_1
*I *1485:A I *D sky130_fd_sc_hd__nor2_1
*I *1503:A1 I *D sky130_fd_sc_hd__o211ai_2
*I *1500:B I *D sky130_fd_sc_hd__nand2_1
*I *1484:A I *D sky130_fd_sc_hd__and2_4
*I *1578:X O *D sky130_fd_sc_hd__buf_2
*CAP
1 *1499:B 0.000216295
2 *1485:A 0.000145983
3 *1503:A1 0.000624338
4 *1500:B 0.000182407
5 *1484:A 0
6 *1578:X 0.00043252
7 *228:78 0.00158774
8 *228:66 0.00220172
9 *228:51 0.00371545
10 *228:35 0.0041714
11 *228:16 0.00226732
12 *228:12 0.00118545
13 *228:16 *229:14 0
14 *228:35 *229:14 0
15 *1423:A *228:78 0.00106897
16 *1423:B *228:78 0.00139433
17 *1431:A2 *228:66 0
18 *1431:A2 *228:78 7.63125e-05
19 *1444:A *228:66 0
20 *1445:B1 *228:78 1.6783e-05
21 *1448:B *1503:A1 0.000254913
22 *1461:B *228:35 0.000136347
23 *1482:A3 *228:78 0.00015639
24 *1485:B *1485:A 0.000371292
25 *1485:B *228:78 0.000122797
26 *1486:B *228:66 0.00191504
27 *1488:A1 *1503:A1 9.33221e-05
28 *1499:A *1499:B 5.84828e-05
29 *1544:A *228:35 0.000257825
30 *1581:A *1503:A1 0.000118407
31 *35:61 *228:51 4.18096e-05
32 *72:12 *1499:B 1.16578e-05
33 *87:12 *1485:A 0.000382168
34 *114:12 *1503:A1 0.000972059
35 *131:48 *1500:B 0
36 *131:48 *228:66 0
37 *134:107 *1500:B 0.000156861
38 *134:107 *228:66 0.000147637
39 *144:30 *228:35 3.67118e-05
40 *147:25 *228:78 0.000518564
41 *151:22 *228:51 0.00042152
42 *166:12 *228:51 1.89489e-05
43 *168:36 *228:51 0.000232502
44 *170:18 *228:66 0
45 *176:24 *1503:A1 0.00131537
46 *183:53 *1503:A1 0.000373556
47 *183:131 *228:66 6.77891e-05
48 *183:170 *228:51 0.00137036
49 *184:20 *228:51 0.000264606
50 *188:16 *228:66 2.27488e-05
51 *191:12 *228:12 8.76986e-05
52 *191:12 *228:16 0
53 *196:122 *1503:A1 2.03321e-05
54 *215:16 *1503:A1 2.75145e-05
55 *225:10 *228:35 0.000673214
56 *225:74 *228:35 0.000107432
57 *227:23 *228:35 0.000157393
58 *227:66 *228:35 0.000744536
59 *227:108 *228:66 3.2723e-05
*RES
1 *1578:X *228:12 12.575 
2 *228:12 *228:16 10.52 
3 *228:16 *1484:A 3.6 
4 *228:16 *228:35 36.135 
5 *228:35 *228:51 37.13 
6 *228:51 *1500:B 6.975 
7 *228:51 *228:66 27.35 
8 *228:66 *228:78 30.615 
9 *228:78 *1503:A1 24.555 
10 *228:66 *1485:A 6.205 
11 *228:12 *1499:B 5.17 
*END

*D_NET *229 0.0486242
*CONN
*I *1514:A1 I *D sky130_fd_sc_hd__o221a_1
*I *1506:B I *D sky130_fd_sc_hd__xnor2_4
*I *1512:A2 I *D sky130_fd_sc_hd__o21a_1
*I *1513:A2 I *D sky130_fd_sc_hd__a31oi_2
*I *1579:X O *D sky130_fd_sc_hd__buf_4
*CAP
1 *1514:A1 0.00518194
2 *1506:B 0.000533678
3 *1512:A2 0.00249135
4 *1513:A2 9.42217e-06
5 *1579:X 0.00145317
6 *229:47 0.00622672
7 *229:20 0.00604305
8 *229:14 0.00946705
9 *1394:B *1506:B 0
10 *1424:A *229:47 0.00014177
11 *1430:A *1514:A1 0.000335273
12 *1450:A1 *1512:A2 6.63219e-06
13 *1450:B1 *1512:A2 6.16226e-06
14 *1461:A_N *1514:A1 0.00011156
15 *1471:A3 *1506:B 0
16 *1471:A3 *1512:A2 0
17 *1505:B1 *1514:A1 0.000284341
18 *1506:A *1506:B 0.000668922
19 *1506:A *1512:A2 0.00014119
20 *1513:B1 *1512:A2 0.00390842
21 *1514:A2 *1514:A1 1.79536e-05
22 *1514:C1 *1514:A1 0.000183586
23 *1516:A2 *1514:A1 0.00161484
24 *1516:A2 *229:47 0
25 *1521:A3 *1514:A1 0.000974168
26 *1531:A *1514:A1 0
27 *1531:A *229:14 0
28 *1549:A2 *229:47 0.000890143
29 *1554:A_N *229:47 0.000189046
30 *1555:A1 *229:20 0.000600828
31 *39:22 *1513:A2 0
32 *50:29 *1514:A1 0
33 *62:18 *1514:A1 0
34 *78:22 *1506:B 0
35 *109:30 *229:14 0
36 *148:30 *1513:A2 1.92979e-05
37 *148:30 *229:20 0.000130512
38 *149:48 *1506:B 0.000140403
39 *162:27 *229:47 0.000211163
40 *174:22 *1514:A1 0
41 *181:87 *229:20 0.00012369
42 *181:107 *229:20 0.000184447
43 *181:115 *229:14 3.78644e-05
44 *188:18 *1514:A1 0
45 *207:25 *229:47 0.000470208
46 *211:24 *1514:A1 3.20039e-05
47 *219:30 *229:20 0.00279481
48 *219:30 *229:47 0.00248267
49 *225:103 *1506:B 0.000236643
50 *226:10 *229:14 0.000279291
51 *228:16 *229:14 0
52 *228:35 *229:14 0
*RES
1 *1579:X *229:14 26.9296 
2 *229:14 *229:20 6.29213 
3 *229:20 *1513:A2 4.3325 
4 *229:20 *229:47 9.92333 
5 *229:47 *1512:A2 13.1918 
6 *229:47 *1506:B 16.0875 
7 *229:14 *1514:A1 14.1394 
*END

*D_NET *230 0.0293544
*CONN
*I *1398:A I *D sky130_fd_sc_hd__buf_4
*I *1448:A I *D sky130_fd_sc_hd__or2_4
*I *1409:A I *D sky130_fd_sc_hd__and4_1
*I *1400:A I *D sky130_fd_sc_hd__and4_2
*I *1580:X O *D sky130_fd_sc_hd__clkbuf_2
*CAP
1 *1398:A 0.000217335
2 *1448:A 0.000971621
3 *1409:A 0
4 *1400:A 0.00122468
5 *1580:X 0.00107915
6 *230:54 0.00243721
7 *230:41 0.00277278
8 *230:18 0.00155759
9 *230:10 0.00293659
10 *1397:A *230:41 0.000142052
11 *1397:A *230:54 8.16041e-05
12 *1399:B1 *1448:A 5.05437e-05
13 *1409:D *230:41 0.000356938
14 *1413:A3 *230:18 2.76356e-05
15 *1424:A *230:10 0.000104583
16 *1424:A *230:18 0.000224474
17 *1442:B *230:54 2.49909e-05
18 *1448:B *230:41 5.65165e-05
19 *1448:B *230:54 0.000704587
20 *1463:A *230:54 0.000520669
21 *1463:B *1398:A 2.81489e-05
22 *1463:B *230:54 0.000143773
23 *1467:B *1400:A 0.00167824
24 *1480:A *1400:A 5.83121e-06
25 *1480:B *1400:A 0.000294152
26 *1480:C *1400:A 0.00030082
27 *1511:A2 *230:41 1.79483e-05
28 *1516:A1 *230:10 2.85623e-05
29 *1517:B *1448:A 0.000643938
30 *1517:B *230:54 2.76356e-05
31 *1523:B1 *230:10 0.000202163
32 *1549:A1 *230:10 4.66108e-05
33 *1551:A *230:54 0.000268138
34 *37:10 *230:54 0.000122797
35 *40:14 *1400:A 2.14129e-05
36 *40:14 *230:10 7.25897e-05
37 *53:32 *1400:A 0.00015777
38 *53:32 *230:10 0.000560867
39 *53:32 *230:41 1.09082e-05
40 *53:38 *1400:A 4.24618e-05
41 *53:107 *230:10 0.000175716
42 *78:22 *1448:A 0.000146855
43 *109:18 *230:18 4.60061e-05
44 *121:8 *230:10 4.8919e-05
45 *128:8 *1400:A 0.00342451
46 *128:8 *230:10 0.000189324
47 *128:8 *230:18 0.0010196
48 *130:99 *1400:A 0
49 *133:18 *230:10 8.21775e-05
50 *133:20 *230:10 3.10777e-05
51 *133:20 *230:18 0.00102352
52 *142:16 *1398:A 5.61031e-05
53 *149:63 *1448:A 0
54 *149:67 *1448:A 0
55 *153:12 *230:41 3.83194e-05
56 *167:34 *1400:A 0.000150601
57 *172:16 *1448:A 4.49585e-05
58 *186:24 *230:54 9.5049e-05
59 *186:65 *230:10 0.000352878
60 *192:20 *1448:A 9.29751e-06
61 *192:30 *1448:A 0.000266817
62 *194:18 *1448:A 0.000481786
63 *197:10 *1448:A 0
64 *201:71 *230:41 2.10214e-05
65 *209:106 *230:54 6.71882e-05
66 *224:31 *1448:A 0.000472723
67 *225:74 *1400:A 0.000395794
68 *225:84 *230:10 0.000547885
*RES
1 *1580:X *230:10 28.6275 
2 *230:10 *230:18 17.0125 
3 *230:18 *1400:A 44.955 
4 *230:10 *230:41 9.72503 
5 *230:41 *1409:A 1.6 
6 *230:41 *230:54 20.16 
7 *230:54 *1448:A 28.175 
8 *230:54 *1398:A 4.39 
*END
