*SPEF "ieee 1481-1999"
*DESIGN "alu"
*DATE "16:21:35 Sunday May 04, 2025"
*VENDOR "The OpenROAD Project"
*PROGRAM "OpenROAD"
*VERSION "b16bda7e82721d10566ff7e2b68f1ff0be9f9e38"
*DESIGN_FLOW "NAME_SCOPE LOCAL" "PIN_CAP NONE"
*DIVIDER /
*DELIMITER :
*BUS_DELIMITER []
*T_UNIT 1 NS
*C_UNIT 1 PF
*R_UNIT 1 OHM
*L_UNIT 1 HENRY

*NAME_MAP
*3 in1[0]
*4 in1[1]
*5 in1[2]
*6 in1[3]
*7 in1[4]
*8 in1[5]
*9 in1[6]
*10 in1[7]
*11 in2[0]
*12 in2[1]
*13 in2[2]
*14 in2[3]
*15 in2[4]
*16 in2[5]
*17 in2[6]
*18 in2[7]
*19 op[0]
*20 op[1]
*21 op[2]
*22 out[0]
*23 out[1]
*24 out[2]
*25 out[3]
*26 out[4]
*27 out[5]
*28 out[6]
*29 out[7]
*30 _000_
*31 _001_
*32 _002_
*33 _003_
*34 _004_
*35 _005_
*36 _006_
*37 _007_
*38 _008_
*39 _009_
*40 _010_
*41 _011_
*42 _012_
*43 _013_
*44 _014_
*45 _015_
*46 _016_
*47 _017_
*48 _018_
*49 _019_
*50 _020_
*51 _021_
*52 _022_
*53 _023_
*54 _024_
*55 _025_
*56 _026_
*57 _027_
*58 _028_
*59 _029_
*60 _030_
*61 _031_
*62 _032_
*63 _033_
*64 _034_
*65 _035_
*66 _036_
*67 _037_
*68 _038_
*69 _039_
*70 _040_
*71 _041_
*72 _042_
*73 _043_
*74 _044_
*75 _045_
*76 _046_
*77 _047_
*78 _048_
*79 _049_
*80 _050_
*81 _051_
*82 _052_
*83 _053_
*84 _054_
*85 _055_
*86 _056_
*87 _057_
*88 _058_
*89 _059_
*90 _060_
*91 _061_
*92 _062_
*93 _063_
*94 _064_
*95 _065_
*96 _066_
*97 _067_
*98 _068_
*99 _069_
*100 _070_
*101 _071_
*102 _072_
*103 _073_
*104 _074_
*105 _075_
*106 _076_
*107 _077_
*108 _078_
*109 _079_
*110 _080_
*111 _081_
*112 _082_
*113 _083_
*114 _084_
*115 _085_
*116 _086_
*117 _087_
*118 _088_
*119 _089_
*120 _090_
*121 _091_
*122 _092_
*123 _093_
*124 _094_
*125 _095_
*126 _096_
*127 _097_
*128 _098_
*129 _099_
*130 _100_
*131 _101_
*132 _102_
*133 _103_
*134 _104_
*135 _105_
*136 _106_
*137 _107_
*138 _108_
*139 _109_
*140 _110_
*141 _111_
*142 _112_
*143 _113_
*144 _114_
*145 _115_
*146 _116_
*147 _117_
*148 _118_
*149 _119_
*150 _120_
*151 _121_
*152 _122_
*153 _123_
*154 _124_
*155 _125_
*156 _126_
*157 _127_
*158 _128_
*159 _129_
*160 _130_
*161 _131_
*162 _132_
*163 _133_
*164 _134_
*165 _135_
*166 _136_
*167 _137_
*168 _138_
*169 _139_
*170 _140_
*171 _141_
*172 _142_
*173 _143_
*174 _144_
*175 _145_
*176 _146_
*177 _147_
*178 _148_
*179 _149_
*180 _150_
*181 _151_
*182 _152_
*183 _153_
*184 _154_
*185 _155_
*186 _156_
*187 _157_
*188 _158_
*189 _159_
*190 _160_
*191 _161_
*192 _162_
*193 _163_
*194 _164_
*195 _165_
*196 _166_
*197 _167_
*198 _168_
*199 _169_
*200 net1
*201 net10
*202 net11
*203 net12
*204 net13
*205 net14
*206 net15
*207 net16
*208 net17
*209 net18
*210 net19
*211 net2
*212 net20
*213 net21
*214 net22
*215 net23
*216 net24
*217 net25
*218 net26
*219 net27
*220 net28
*221 net29
*222 net3
*223 net30
*224 net31
*225 net4
*226 net5
*227 net6
*228 net7
*229 net8
*230 net9
*231 FILLER_0_0_109
*232 FILLER_0_0_113
*233 FILLER_0_0_125
*234 FILLER_0_0_137
*235 FILLER_0_0_141
*236 FILLER_0_0_15
*237 FILLER_0_0_153
*238 FILLER_0_0_165
*239 FILLER_0_0_169
*240 FILLER_0_0_181
*241 FILLER_0_0_189
*242 FILLER_0_0_27
*243 FILLER_0_0_29
*244 FILLER_0_0_3
*245 FILLER_0_0_41
*246 FILLER_0_0_53
*247 FILLER_0_0_57
*248 FILLER_0_0_69
*249 FILLER_0_0_81
*250 FILLER_0_0_85
*251 FILLER_0_0_97
*252 FILLER_0_10_108
*253 FILLER_0_10_117
*254 FILLER_0_10_129
*255 FILLER_0_10_137
*256 FILLER_0_10_141
*257 FILLER_0_10_15
*258 FILLER_0_10_158
*259 FILLER_0_10_166
*260 FILLER_0_10_174
*261 FILLER_0_10_184
*262 FILLER_0_10_27
*263 FILLER_0_10_29
*264 FILLER_0_10_3
*265 FILLER_0_10_41
*266 FILLER_0_10_53
*267 FILLER_0_10_74
*268 FILLER_0_10_82
*269 FILLER_0_10_92
*270 FILLER_0_11_110
*271 FILLER_0_11_128
*272 FILLER_0_11_143
*273 FILLER_0_11_151
*274 FILLER_0_11_163
*275 FILLER_0_11_167
*276 FILLER_0_11_169
*277 FILLER_0_11_181
*278 FILLER_0_11_189
*279 FILLER_0_11_19
*280 FILLER_0_11_31
*281 FILLER_0_11_43
*282 FILLER_0_11_55
*283 FILLER_0_11_57
*284 FILLER_0_11_69
*285 FILLER_0_11_7
*286 FILLER_0_11_81
*287 FILLER_0_11_93
*288 FILLER_0_12_110
*289 FILLER_0_12_135
*290 FILLER_0_12_139
*291 FILLER_0_12_15
*292 FILLER_0_12_163
*293 FILLER_0_12_169
*294 FILLER_0_12_173
*295 FILLER_0_12_185
*296 FILLER_0_12_189
*297 FILLER_0_12_25
*298 FILLER_0_12_29
*299 FILLER_0_12_3
*300 FILLER_0_12_41
*301 FILLER_0_12_49
*302 FILLER_0_12_57
*303 FILLER_0_12_69
*304 FILLER_0_12_81
*305 FILLER_0_12_85
*306 FILLER_0_12_93
*307 FILLER_0_12_98
*308 FILLER_0_13_104
*309 FILLER_0_13_113
*310 FILLER_0_13_125
*311 FILLER_0_13_137
*312 FILLER_0_13_149
*313 FILLER_0_13_165
*314 FILLER_0_13_169
*315 FILLER_0_13_181
*316 FILLER_0_13_189
*317 FILLER_0_13_19
*318 FILLER_0_13_31
*319 FILLER_0_13_43
*320 FILLER_0_13_55
*321 FILLER_0_13_57
*322 FILLER_0_13_69
*323 FILLER_0_13_7
*324 FILLER_0_13_81
*325 FILLER_0_13_92
*326 FILLER_0_14_109
*327 FILLER_0_14_118
*328 FILLER_0_14_130
*329 FILLER_0_14_138
*330 FILLER_0_14_141
*331 FILLER_0_14_15
*332 FILLER_0_14_153
*333 FILLER_0_14_166
*334 FILLER_0_14_178
*335 FILLER_0_14_27
*336 FILLER_0_14_3
*337 FILLER_0_14_36
*338 FILLER_0_14_48
*339 FILLER_0_14_60
*340 FILLER_0_14_72
*341 FILLER_0_14_85
*342 FILLER_0_14_97
*343 FILLER_0_15_104
*344 FILLER_0_15_113
*345 FILLER_0_15_125
*346 FILLER_0_15_137
*347 FILLER_0_15_149
*348 FILLER_0_15_15
*349 FILLER_0_15_161
*350 FILLER_0_15_167
*351 FILLER_0_15_175
*352 FILLER_0_15_181
*353 FILLER_0_15_189
*354 FILLER_0_15_27
*355 FILLER_0_15_3
*356 FILLER_0_15_39
*357 FILLER_0_15_51
*358 FILLER_0_15_55
*359 FILLER_0_15_57
*360 FILLER_0_15_69
*361 FILLER_0_15_81
*362 FILLER_0_15_89
*363 FILLER_0_16_107
*364 FILLER_0_16_119
*365 FILLER_0_16_131
*366 FILLER_0_16_139
*367 FILLER_0_16_141
*368 FILLER_0_16_153
*369 FILLER_0_16_165
*370 FILLER_0_16_177
*371 FILLER_0_16_189
*372 FILLER_0_16_19
*373 FILLER_0_16_27
*374 FILLER_0_16_29
*375 FILLER_0_16_41
*376 FILLER_0_16_53
*377 FILLER_0_16_65
*378 FILLER_0_16_7
*379 FILLER_0_16_77
*380 FILLER_0_16_83
*381 FILLER_0_17_108
*382 FILLER_0_17_113
*383 FILLER_0_17_125
*384 FILLER_0_17_137
*385 FILLER_0_17_15
*386 FILLER_0_17_175
*387 FILLER_0_17_187
*388 FILLER_0_17_27
*389 FILLER_0_17_3
*390 FILLER_0_17_34
*391 FILLER_0_17_42
*392 FILLER_0_17_49
*393 FILLER_0_17_55
*394 FILLER_0_17_57
*395 FILLER_0_17_69
*396 FILLER_0_17_81
*397 FILLER_0_17_96
*398 FILLER_0_18_109
*399 FILLER_0_18_121
*400 FILLER_0_18_133
*401 FILLER_0_18_139
*402 FILLER_0_18_141
*403 FILLER_0_18_153
*404 FILLER_0_18_165
*405 FILLER_0_18_177
*406 FILLER_0_18_189
*407 FILLER_0_18_25
*408 FILLER_0_18_35
*409 FILLER_0_18_47
*410 FILLER_0_18_59
*411 FILLER_0_18_71
*412 FILLER_0_18_83
*413 FILLER_0_18_85
*414 FILLER_0_18_97
*415 FILLER_0_19_108
*416 FILLER_0_19_113
*417 FILLER_0_19_125
*418 FILLER_0_19_142
*419 FILLER_0_19_15
*420 FILLER_0_19_151
*421 FILLER_0_19_155
*422 FILLER_0_19_161
*423 FILLER_0_19_167
*424 FILLER_0_19_175
*425 FILLER_0_19_187
*426 FILLER_0_19_27
*427 FILLER_0_19_3
*428 FILLER_0_19_39
*429 FILLER_0_19_51
*430 FILLER_0_19_55
*431 FILLER_0_19_57
*432 FILLER_0_19_69
*433 FILLER_0_19_77
*434 FILLER_0_19_84
*435 FILLER_0_19_96
*436 FILLER_0_1_105
*437 FILLER_0_1_111
*438 FILLER_0_1_113
*439 FILLER_0_1_121
*440 FILLER_0_1_125
*441 FILLER_0_1_137
*442 FILLER_0_1_143
*443 FILLER_0_1_149
*444 FILLER_0_1_161
*445 FILLER_0_1_167
*446 FILLER_0_1_169
*447 FILLER_0_1_21
*448 FILLER_0_1_41
*449 FILLER_0_1_53
*450 FILLER_0_1_57
*451 FILLER_0_1_69
*452 FILLER_0_1_81
*453 FILLER_0_1_9
*454 FILLER_0_1_93
*455 FILLER_0_20_109
*456 FILLER_0_20_121
*457 FILLER_0_20_133
*458 FILLER_0_20_139
*459 FILLER_0_20_141
*460 FILLER_0_20_15
*461 FILLER_0_20_153
*462 FILLER_0_20_165
*463 FILLER_0_20_173
*464 FILLER_0_20_180
*465 FILLER_0_20_25
*466 FILLER_0_20_29
*467 FILLER_0_20_3
*468 FILLER_0_20_41
*469 FILLER_0_20_53
*470 FILLER_0_20_65
*471 FILLER_0_20_77
*472 FILLER_0_20_83
*473 FILLER_0_20_85
*474 FILLER_0_20_97
*475 FILLER_0_21_105
*476 FILLER_0_21_111
*477 FILLER_0_21_113
*478 FILLER_0_21_123
*479 FILLER_0_21_128
*480 FILLER_0_21_14
*481 FILLER_0_21_140
*482 FILLER_0_21_152
*483 FILLER_0_21_164
*484 FILLER_0_21_169
*485 FILLER_0_21_181
*486 FILLER_0_21_189
*487 FILLER_0_21_26
*488 FILLER_0_21_38
*489 FILLER_0_21_50
*490 FILLER_0_21_57
*491 FILLER_0_21_69
*492 FILLER_0_21_81
*493 FILLER_0_21_93
*494 FILLER_0_22_109
*495 FILLER_0_22_121
*496 FILLER_0_22_133
*497 FILLER_0_22_139
*498 FILLER_0_22_141
*499 FILLER_0_22_15
*500 FILLER_0_22_153
*501 FILLER_0_22_165
*502 FILLER_0_22_169
*503 FILLER_0_22_173
*504 FILLER_0_22_185
*505 FILLER_0_22_189
*506 FILLER_0_22_27
*507 FILLER_0_22_29
*508 FILLER_0_22_3
*509 FILLER_0_22_41
*510 FILLER_0_22_49
*511 FILLER_0_22_61
*512 FILLER_0_22_73
*513 FILLER_0_22_85
*514 FILLER_0_22_97
*515 FILLER_0_23_101
*516 FILLER_0_23_109
*517 FILLER_0_23_113
*518 FILLER_0_23_125
*519 FILLER_0_23_137
*520 FILLER_0_23_160
*521 FILLER_0_23_169
*522 FILLER_0_23_181
*523 FILLER_0_23_189
*524 FILLER_0_23_19
*525 FILLER_0_23_31
*526 FILLER_0_23_57
*527 FILLER_0_23_69
*528 FILLER_0_23_7
*529 FILLER_0_23_77
*530 FILLER_0_23_89
*531 FILLER_0_24_109
*532 FILLER_0_24_118
*533 FILLER_0_24_130
*534 FILLER_0_24_138
*535 FILLER_0_24_141
*536 FILLER_0_24_15
*537 FILLER_0_24_153
*538 FILLER_0_24_165
*539 FILLER_0_24_177
*540 FILLER_0_24_185
*541 FILLER_0_24_189
*542 FILLER_0_24_27
*543 FILLER_0_24_29
*544 FILLER_0_24_3
*545 FILLER_0_24_41
*546 FILLER_0_24_53
*547 FILLER_0_24_65
*548 FILLER_0_24_77
*549 FILLER_0_24_83
*550 FILLER_0_24_85
*551 FILLER_0_24_97
*552 FILLER_0_25_105
*553 FILLER_0_25_111
*554 FILLER_0_25_113
*555 FILLER_0_25_121
*556 FILLER_0_25_131
*557 FILLER_0_25_143
*558 FILLER_0_25_15
*559 FILLER_0_25_155
*560 FILLER_0_25_167
*561 FILLER_0_25_169
*562 FILLER_0_25_177
*563 FILLER_0_25_189
*564 FILLER_0_25_27
*565 FILLER_0_25_3
*566 FILLER_0_25_39
*567 FILLER_0_25_51
*568 FILLER_0_25_55
*569 FILLER_0_25_57
*570 FILLER_0_25_69
*571 FILLER_0_25_81
*572 FILLER_0_25_93
*573 FILLER_0_26_109
*574 FILLER_0_26_121
*575 FILLER_0_26_133
*576 FILLER_0_26_139
*577 FILLER_0_26_141
*578 FILLER_0_26_153
*579 FILLER_0_26_165
*580 FILLER_0_26_19
*581 FILLER_0_26_27
*582 FILLER_0_26_29
*583 FILLER_0_26_41
*584 FILLER_0_26_69
*585 FILLER_0_26_7
*586 FILLER_0_26_81
*587 FILLER_0_26_85
*588 FILLER_0_26_97
*589 FILLER_0_27_107
*590 FILLER_0_27_111
*591 FILLER_0_27_113
*592 FILLER_0_27_125
*593 FILLER_0_27_137
*594 FILLER_0_27_149
*595 FILLER_0_27_15
*596 FILLER_0_27_161
*597 FILLER_0_27_167
*598 FILLER_0_27_169
*599 FILLER_0_27_181
*600 FILLER_0_27_185
*601 FILLER_0_27_27
*602 FILLER_0_27_3
*603 FILLER_0_27_39
*604 FILLER_0_27_51
*605 FILLER_0_27_55
*606 FILLER_0_27_57
*607 FILLER_0_27_71
*608 FILLER_0_27_83
*609 FILLER_0_27_95
*610 FILLER_0_28_104
*611 FILLER_0_28_116
*612 FILLER_0_28_128
*613 FILLER_0_28_139
*614 FILLER_0_28_141
*615 FILLER_0_28_153
*616 FILLER_0_28_16
*617 FILLER_0_28_165
*618 FILLER_0_28_176
*619 FILLER_0_28_188
*620 FILLER_0_28_20
*621 FILLER_0_28_29
*622 FILLER_0_28_41
*623 FILLER_0_28_53
*624 FILLER_0_28_65
*625 FILLER_0_28_77
*626 FILLER_0_28_83
*627 FILLER_0_28_92
*628 FILLER_0_29_110
*629 FILLER_0_29_113
*630 FILLER_0_29_125
*631 FILLER_0_29_134
*632 FILLER_0_29_146
*633 FILLER_0_29_15
*634 FILLER_0_29_158
*635 FILLER_0_29_166
*636 FILLER_0_29_169
*637 FILLER_0_29_175
*638 FILLER_0_29_180
*639 FILLER_0_29_188
*640 FILLER_0_29_27
*641 FILLER_0_29_3
*642 FILLER_0_29_35
*643 FILLER_0_29_41
*644 FILLER_0_29_53
*645 FILLER_0_29_57
*646 FILLER_0_29_65
*647 FILLER_0_29_74
*648 FILLER_0_29_86
*649 FILLER_0_29_98
*650 FILLER_0_2_108
*651 FILLER_0_2_120
*652 FILLER_0_2_132
*653 FILLER_0_2_141
*654 FILLER_0_2_15
*655 FILLER_0_2_153
*656 FILLER_0_2_165
*657 FILLER_0_2_177
*658 FILLER_0_2_185
*659 FILLER_0_2_189
*660 FILLER_0_2_29
*661 FILLER_0_2_3
*662 FILLER_0_2_41
*663 FILLER_0_2_53
*664 FILLER_0_2_65
*665 FILLER_0_2_77
*666 FILLER_0_2_83
*667 FILLER_0_2_85
*668 FILLER_0_2_97
*669 FILLER_0_30_109
*670 FILLER_0_30_121
*671 FILLER_0_30_133
*672 FILLER_0_30_139
*673 FILLER_0_30_141
*674 FILLER_0_30_15
*675 FILLER_0_30_153
*676 FILLER_0_30_165
*677 FILLER_0_30_177
*678 FILLER_0_30_187
*679 FILLER_0_30_27
*680 FILLER_0_30_29
*681 FILLER_0_30_3
*682 FILLER_0_30_41
*683 FILLER_0_30_53
*684 FILLER_0_30_78
*685 FILLER_0_30_85
*686 FILLER_0_30_97
*687 FILLER_0_31_105
*688 FILLER_0_31_111
*689 FILLER_0_31_113
*690 FILLER_0_31_125
*691 FILLER_0_31_129
*692 FILLER_0_31_135
*693 FILLER_0_31_143
*694 FILLER_0_31_149
*695 FILLER_0_31_15
*696 FILLER_0_31_157
*697 FILLER_0_31_169
*698 FILLER_0_31_183
*699 FILLER_0_31_189
*700 FILLER_0_31_19
*701 FILLER_0_31_39
*702 FILLER_0_31_51
*703 FILLER_0_31_55
*704 FILLER_0_31_57
*705 FILLER_0_31_69
*706 FILLER_0_31_7
*707 FILLER_0_31_81
*708 FILLER_0_31_93
*709 FILLER_0_32_109
*710 FILLER_0_32_11
*711 FILLER_0_32_121
*712 FILLER_0_32_129
*713 FILLER_0_32_135
*714 FILLER_0_32_139
*715 FILLER_0_32_141
*716 FILLER_0_32_153
*717 FILLER_0_32_165
*718 FILLER_0_32_177
*719 FILLER_0_32_189
*720 FILLER_0_32_19
*721 FILLER_0_32_27
*722 FILLER_0_32_29
*723 FILLER_0_32_3
*724 FILLER_0_32_41
*725 FILLER_0_32_53
*726 FILLER_0_32_65
*727 FILLER_0_32_77
*728 FILLER_0_32_83
*729 FILLER_0_32_85
*730 FILLER_0_32_97
*731 FILLER_0_33_106
*732 FILLER_0_33_120
*733 FILLER_0_33_132
*734 FILLER_0_33_150
*735 FILLER_0_33_160
*736 FILLER_0_33_169
*737 FILLER_0_33_181
*738 FILLER_0_33_185
*739 FILLER_0_33_19
*740 FILLER_0_33_31
*741 FILLER_0_33_43
*742 FILLER_0_33_55
*743 FILLER_0_33_57
*744 FILLER_0_33_7
*745 FILLER_0_33_77
*746 FILLER_0_33_85
*747 FILLER_0_33_94
*748 FILLER_0_34_107
*749 FILLER_0_34_113
*750 FILLER_0_34_124
*751 FILLER_0_34_137
*752 FILLER_0_34_141
*753 FILLER_0_34_153
*754 FILLER_0_34_165
*755 FILLER_0_34_177
*756 FILLER_0_34_189
*757 FILLER_0_34_22
*758 FILLER_0_34_29
*759 FILLER_0_34_3
*760 FILLER_0_34_40
*761 FILLER_0_34_52
*762 FILLER_0_34_64
*763 FILLER_0_34_80
*764 FILLER_0_34_85
*765 FILLER_0_34_95
*766 FILLER_0_35_100
*767 FILLER_0_35_113
*768 FILLER_0_35_125
*769 FILLER_0_35_140
*770 FILLER_0_35_144
*771 FILLER_0_35_15
*772 FILLER_0_35_152
*773 FILLER_0_35_164
*774 FILLER_0_35_169
*775 FILLER_0_35_181
*776 FILLER_0_35_189
*777 FILLER_0_35_27
*778 FILLER_0_35_3
*779 FILLER_0_35_35
*780 FILLER_0_35_43
*781 FILLER_0_35_55
*782 FILLER_0_35_64
*783 FILLER_0_35_76
*784 FILLER_0_35_88
*785 FILLER_0_36_105
*786 FILLER_0_36_118
*787 FILLER_0_36_130
*788 FILLER_0_36_138
*789 FILLER_0_36_141
*790 FILLER_0_36_15
*791 FILLER_0_36_153
*792 FILLER_0_36_165
*793 FILLER_0_36_178
*794 FILLER_0_36_24
*795 FILLER_0_36_29
*796 FILLER_0_36_41
*797 FILLER_0_36_53
*798 FILLER_0_36_61
*799 FILLER_0_36_7
*800 FILLER_0_36_75
*801 FILLER_0_36_83
*802 FILLER_0_36_85
*803 FILLER_0_36_97
*804 FILLER_0_37_107
*805 FILLER_0_37_111
*806 FILLER_0_37_113
*807 FILLER_0_37_125
*808 FILLER_0_37_137
*809 FILLER_0_37_149
*810 FILLER_0_37_15
*811 FILLER_0_37_161
*812 FILLER_0_37_167
*813 FILLER_0_37_169
*814 FILLER_0_37_181
*815 FILLER_0_37_189
*816 FILLER_0_37_27
*817 FILLER_0_37_3
*818 FILLER_0_37_35
*819 FILLER_0_37_50
*820 FILLER_0_37_57
*821 FILLER_0_37_69
*822 FILLER_0_37_81
*823 FILLER_0_37_85
*824 FILLER_0_37_95
*825 FILLER_0_38_106
*826 FILLER_0_38_114
*827 FILLER_0_38_121
*828 FILLER_0_38_133
*829 FILLER_0_38_139
*830 FILLER_0_38_141
*831 FILLER_0_38_153
*832 FILLER_0_38_165
*833 FILLER_0_38_177
*834 FILLER_0_38_19
*835 FILLER_0_38_27
*836 FILLER_0_38_29
*837 FILLER_0_38_41
*838 FILLER_0_38_53
*839 FILLER_0_38_61
*840 FILLER_0_38_7
*841 FILLER_0_38_71
*842 FILLER_0_38_83
*843 FILLER_0_38_94
*844 FILLER_0_39_103
*845 FILLER_0_39_111
*846 FILLER_0_39_113
*847 FILLER_0_39_125
*848 FILLER_0_39_137
*849 FILLER_0_39_149
*850 FILLER_0_39_15
*851 FILLER_0_39_161
*852 FILLER_0_39_167
*853 FILLER_0_39_169
*854 FILLER_0_39_181
*855 FILLER_0_39_189
*856 FILLER_0_39_19
*857 FILLER_0_39_3
*858 FILLER_0_39_34
*859 FILLER_0_39_48
*860 FILLER_0_39_57
*861 FILLER_0_39_69
*862 FILLER_0_39_81
*863 FILLER_0_39_93
*864 FILLER_0_3_108
*865 FILLER_0_3_113
*866 FILLER_0_3_126
*867 FILLER_0_3_135
*868 FILLER_0_3_147
*869 FILLER_0_3_159
*870 FILLER_0_3_167
*871 FILLER_0_3_169
*872 FILLER_0_3_177
*873 FILLER_0_3_186
*874 FILLER_0_3_42
*875 FILLER_0_3_54
*876 FILLER_0_3_57
*877 FILLER_0_3_7
*878 FILLER_0_3_72
*879 FILLER_0_3_84
*880 FILLER_0_3_96
*881 FILLER_0_40_106
*882 FILLER_0_40_118
*883 FILLER_0_40_130
*884 FILLER_0_40_134
*885 FILLER_0_40_138
*886 FILLER_0_40_141
*887 FILLER_0_40_15
*888 FILLER_0_40_153
*889 FILLER_0_40_165
*890 FILLER_0_40_179
*891 FILLER_0_40_185
*892 FILLER_0_40_27
*893 FILLER_0_40_29
*894 FILLER_0_40_3
*895 FILLER_0_40_41
*896 FILLER_0_40_53
*897 FILLER_0_40_65
*898 FILLER_0_40_77
*899 FILLER_0_40_83
*900 FILLER_0_40_85
*901 FILLER_0_40_97
*902 FILLER_0_41_105
*903 FILLER_0_41_111
*904 FILLER_0_41_113
*905 FILLER_0_41_125
*906 FILLER_0_41_137
*907 FILLER_0_41_149
*908 FILLER_0_41_161
*909 FILLER_0_41_167
*910 FILLER_0_41_169
*911 FILLER_0_41_181
*912 FILLER_0_41_189
*913 FILLER_0_41_21
*914 FILLER_0_41_33
*915 FILLER_0_41_45
*916 FILLER_0_41_54
*917 FILLER_0_41_57
*918 FILLER_0_41_69
*919 FILLER_0_41_81
*920 FILLER_0_41_9
*921 FILLER_0_41_93
*922 FILLER_0_42_109
*923 FILLER_0_42_121
*924 FILLER_0_42_133
*925 FILLER_0_42_139
*926 FILLER_0_42_146
*927 FILLER_0_42_15
*928 FILLER_0_42_158
*929 FILLER_0_42_170
*930 FILLER_0_42_174
*931 FILLER_0_42_183
*932 FILLER_0_42_189
*933 FILLER_0_42_27
*934 FILLER_0_42_3
*935 FILLER_0_42_43
*936 FILLER_0_42_55
*937 FILLER_0_42_67
*938 FILLER_0_42_79
*939 FILLER_0_42_83
*940 FILLER_0_42_85
*941 FILLER_0_42_97
*942 FILLER_0_43_100
*943 FILLER_0_43_113
*944 FILLER_0_43_125
*945 FILLER_0_43_137
*946 FILLER_0_43_149
*947 FILLER_0_43_161
*948 FILLER_0_43_167
*949 FILLER_0_43_169
*950 FILLER_0_43_177
*951 FILLER_0_43_182
*952 FILLER_0_43_21
*953 FILLER_0_43_33
*954 FILLER_0_43_45
*955 FILLER_0_43_53
*956 FILLER_0_43_57
*957 FILLER_0_43_69
*958 FILLER_0_43_76
*959 FILLER_0_43_88
*960 FILLER_0_43_9
*961 FILLER_0_43_94
*962 FILLER_0_44_110
*963 FILLER_0_44_122
*964 FILLER_0_44_139
*965 FILLER_0_44_141
*966 FILLER_0_44_15
*967 FILLER_0_44_151
*968 FILLER_0_44_163
*969 FILLER_0_44_169
*970 FILLER_0_44_187
*971 FILLER_0_44_27
*972 FILLER_0_44_29
*973 FILLER_0_44_3
*974 FILLER_0_44_41
*975 FILLER_0_44_53
*976 FILLER_0_44_59
*977 FILLER_0_44_72
*978 FILLER_0_44_85
*979 FILLER_0_44_93
*980 FILLER_0_45_105
*981 FILLER_0_45_111
*982 FILLER_0_45_113
*983 FILLER_0_45_125
*984 FILLER_0_45_137
*985 FILLER_0_45_149
*986 FILLER_0_45_15
*987 FILLER_0_45_153
*988 FILLER_0_45_160
*989 FILLER_0_45_169
*990 FILLER_0_45_177
*991 FILLER_0_45_188
*992 FILLER_0_45_23
*993 FILLER_0_45_3
*994 FILLER_0_45_31
*995 FILLER_0_45_43
*996 FILLER_0_45_55
*997 FILLER_0_45_79
*998 FILLER_0_45_85
*999 FILLER_0_45_92
*1000 FILLER_0_45_98
*1001 FILLER_0_46_110
*1002 FILLER_0_46_113
*1003 FILLER_0_46_125
*1004 FILLER_0_46_137
*1005 FILLER_0_46_141
*1006 FILLER_0_46_153
*1007 FILLER_0_46_165
*1008 FILLER_0_46_169
*1009 FILLER_0_46_17
*1010 FILLER_0_46_181
*1011 FILLER_0_46_185
*1012 FILLER_0_46_25
*1013 FILLER_0_46_29
*1014 FILLER_0_46_41
*1015 FILLER_0_46_53
*1016 FILLER_0_46_57
*1017 FILLER_0_46_69
*1018 FILLER_0_46_7
*1019 FILLER_0_46_81
*1020 FILLER_0_46_85
*1021 FILLER_0_46_98
*1022 FILLER_0_4_109
*1023 FILLER_0_4_121
*1024 FILLER_0_4_133
*1025 FILLER_0_4_139
*1026 FILLER_0_4_141
*1027 FILLER_0_4_15
*1028 FILLER_0_4_153
*1029 FILLER_0_4_165
*1030 FILLER_0_4_177
*1031 FILLER_0_4_189
*1032 FILLER_0_4_23
*1033 FILLER_0_4_29
*1034 FILLER_0_4_3
*1035 FILLER_0_4_41
*1036 FILLER_0_4_53
*1037 FILLER_0_4_65
*1038 FILLER_0_4_73
*1039 FILLER_0_4_81
*1040 FILLER_0_4_85
*1041 FILLER_0_4_97
*1042 FILLER_0_5_105
*1043 FILLER_0_5_111
*1044 FILLER_0_5_113
*1045 FILLER_0_5_125
*1046 FILLER_0_5_137
*1047 FILLER_0_5_15
*1048 FILLER_0_5_150
*1049 FILLER_0_5_158
*1050 FILLER_0_5_166
*1051 FILLER_0_5_175
*1052 FILLER_0_5_187
*1053 FILLER_0_5_21
*1054 FILLER_0_5_25
*1055 FILLER_0_5_3
*1056 FILLER_0_5_37
*1057 FILLER_0_5_45
*1058 FILLER_0_5_51
*1059 FILLER_0_5_55
*1060 FILLER_0_5_57
*1061 FILLER_0_5_69
*1062 FILLER_0_5_81
*1063 FILLER_0_5_93
*1064 FILLER_0_6_109
*1065 FILLER_0_6_117
*1066 FILLER_0_6_124
*1067 FILLER_0_6_136
*1068 FILLER_0_6_141
*1069 FILLER_0_6_153
*1070 FILLER_0_6_165
*1071 FILLER_0_6_177
*1072 FILLER_0_6_189
*1073 FILLER_0_6_19
*1074 FILLER_0_6_27
*1075 FILLER_0_6_29
*1076 FILLER_0_6_41
*1077 FILLER_0_6_49
*1078 FILLER_0_6_61
*1079 FILLER_0_6_7
*1080 FILLER_0_6_73
*1081 FILLER_0_6_81
*1082 FILLER_0_6_85
*1083 FILLER_0_6_97
*1084 FILLER_0_7_106
*1085 FILLER_0_7_113
*1086 FILLER_0_7_125
*1087 FILLER_0_7_137
*1088 FILLER_0_7_149
*1089 FILLER_0_7_15
*1090 FILLER_0_7_161
*1091 FILLER_0_7_167
*1092 FILLER_0_7_169
*1093 FILLER_0_7_27
*1094 FILLER_0_7_3
*1095 FILLER_0_7_39
*1096 FILLER_0_7_55
*1097 FILLER_0_7_57
*1098 FILLER_0_7_67
*1099 FILLER_0_7_79
*1100 FILLER_0_7_87
*1101 FILLER_0_7_94
*1102 FILLER_0_8_109
*1103 FILLER_0_8_121
*1104 FILLER_0_8_136
*1105 FILLER_0_8_141
*1106 FILLER_0_8_153
*1107 FILLER_0_8_165
*1108 FILLER_0_8_177
*1109 FILLER_0_8_189
*1110 FILLER_0_8_19
*1111 FILLER_0_8_27
*1112 FILLER_0_8_29
*1113 FILLER_0_8_41
*1114 FILLER_0_8_53
*1115 FILLER_0_8_65
*1116 FILLER_0_8_7
*1117 FILLER_0_8_74
*1118 FILLER_0_8_82
*1119 FILLER_0_8_85
*1120 FILLER_0_8_97
*1121 FILLER_0_9_101
*1122 FILLER_0_9_111
*1123 FILLER_0_9_113
*1124 FILLER_0_9_125
*1125 FILLER_0_9_137
*1126 FILLER_0_9_149
*1127 FILLER_0_9_16
*1128 FILLER_0_9_161
*1129 FILLER_0_9_167
*1130 FILLER_0_9_169
*1131 FILLER_0_9_173
*1132 FILLER_0_9_181
*1133 FILLER_0_9_189
*1134 FILLER_0_9_28
*1135 FILLER_0_9_3
*1136 FILLER_0_9_34
*1137 FILLER_0_9_41
*1138 FILLER_0_9_53
*1139 FILLER_0_9_57
*1140 FILLER_0_9_69
*1141 FILLER_0_9_81
*1142 FILLER_0_9_93
*1143 PHY_EDGE_ROW_0_Left_47
*1144 PHY_EDGE_ROW_0_Right_0
*1145 PHY_EDGE_ROW_10_Left_57
*1146 PHY_EDGE_ROW_10_Right_10
*1147 PHY_EDGE_ROW_11_Left_58
*1148 PHY_EDGE_ROW_11_Right_11
*1149 PHY_EDGE_ROW_12_Left_59
*1150 PHY_EDGE_ROW_12_Right_12
*1151 PHY_EDGE_ROW_13_Left_60
*1152 PHY_EDGE_ROW_13_Right_13
*1153 PHY_EDGE_ROW_14_Left_61
*1154 PHY_EDGE_ROW_14_Right_14
*1155 PHY_EDGE_ROW_15_Left_62
*1156 PHY_EDGE_ROW_15_Right_15
*1157 PHY_EDGE_ROW_16_Left_63
*1158 PHY_EDGE_ROW_16_Right_16
*1159 PHY_EDGE_ROW_17_Left_64
*1160 PHY_EDGE_ROW_17_Right_17
*1161 PHY_EDGE_ROW_18_Left_65
*1162 PHY_EDGE_ROW_18_Right_18
*1163 PHY_EDGE_ROW_19_Left_66
*1164 PHY_EDGE_ROW_19_Right_19
*1165 PHY_EDGE_ROW_1_Left_48
*1166 PHY_EDGE_ROW_1_Right_1
*1167 PHY_EDGE_ROW_20_Left_67
*1168 PHY_EDGE_ROW_20_Right_20
*1169 PHY_EDGE_ROW_21_Left_68
*1170 PHY_EDGE_ROW_21_Right_21
*1171 PHY_EDGE_ROW_22_Left_69
*1172 PHY_EDGE_ROW_22_Right_22
*1173 PHY_EDGE_ROW_23_Left_70
*1174 PHY_EDGE_ROW_23_Right_23
*1175 PHY_EDGE_ROW_24_Left_71
*1176 PHY_EDGE_ROW_24_Right_24
*1177 PHY_EDGE_ROW_25_Left_72
*1178 PHY_EDGE_ROW_25_Right_25
*1179 PHY_EDGE_ROW_26_Left_73
*1180 PHY_EDGE_ROW_26_Right_26
*1181 PHY_EDGE_ROW_27_Left_74
*1182 PHY_EDGE_ROW_27_Right_27
*1183 PHY_EDGE_ROW_28_Left_75
*1184 PHY_EDGE_ROW_28_Right_28
*1185 PHY_EDGE_ROW_29_Left_76
*1186 PHY_EDGE_ROW_29_Right_29
*1187 PHY_EDGE_ROW_2_Left_49
*1188 PHY_EDGE_ROW_2_Right_2
*1189 PHY_EDGE_ROW_30_Left_77
*1190 PHY_EDGE_ROW_30_Right_30
*1191 PHY_EDGE_ROW_31_Left_78
*1192 PHY_EDGE_ROW_31_Right_31
*1193 PHY_EDGE_ROW_32_Left_79
*1194 PHY_EDGE_ROW_32_Right_32
*1195 PHY_EDGE_ROW_33_Left_80
*1196 PHY_EDGE_ROW_33_Right_33
*1197 PHY_EDGE_ROW_34_Left_81
*1198 PHY_EDGE_ROW_34_Right_34
*1199 PHY_EDGE_ROW_35_Left_82
*1200 PHY_EDGE_ROW_35_Right_35
*1201 PHY_EDGE_ROW_36_Left_83
*1202 PHY_EDGE_ROW_36_Right_36
*1203 PHY_EDGE_ROW_37_Left_84
*1204 PHY_EDGE_ROW_37_Right_37
*1205 PHY_EDGE_ROW_38_Left_85
*1206 PHY_EDGE_ROW_38_Right_38
*1207 PHY_EDGE_ROW_39_Left_86
*1208 PHY_EDGE_ROW_39_Right_39
*1209 PHY_EDGE_ROW_3_Left_50
*1210 PHY_EDGE_ROW_3_Right_3
*1211 PHY_EDGE_ROW_40_Left_87
*1212 PHY_EDGE_ROW_40_Right_40
*1213 PHY_EDGE_ROW_41_Left_88
*1214 PHY_EDGE_ROW_41_Right_41
*1215 PHY_EDGE_ROW_42_Left_89
*1216 PHY_EDGE_ROW_42_Right_42
*1217 PHY_EDGE_ROW_43_Left_90
*1218 PHY_EDGE_ROW_43_Right_43
*1219 PHY_EDGE_ROW_44_Left_91
*1220 PHY_EDGE_ROW_44_Right_44
*1221 PHY_EDGE_ROW_45_Left_92
*1222 PHY_EDGE_ROW_45_Right_45
*1223 PHY_EDGE_ROW_46_Left_93
*1224 PHY_EDGE_ROW_46_Right_46
*1225 PHY_EDGE_ROW_4_Left_51
*1226 PHY_EDGE_ROW_4_Right_4
*1227 PHY_EDGE_ROW_5_Left_52
*1228 PHY_EDGE_ROW_5_Right_5
*1229 PHY_EDGE_ROW_6_Left_53
*1230 PHY_EDGE_ROW_6_Right_6
*1231 PHY_EDGE_ROW_7_Left_54
*1232 PHY_EDGE_ROW_7_Right_7
*1233 PHY_EDGE_ROW_8_Left_55
*1234 PHY_EDGE_ROW_8_Right_8
*1235 PHY_EDGE_ROW_9_Left_56
*1236 PHY_EDGE_ROW_9_Right_9
*1237 TAP_TAPCELL_ROW_0_94
*1238 TAP_TAPCELL_ROW_0_95
*1239 TAP_TAPCELL_ROW_0_96
*1240 TAP_TAPCELL_ROW_0_97
*1241 TAP_TAPCELL_ROW_0_98
*1242 TAP_TAPCELL_ROW_0_99
*1243 TAP_TAPCELL_ROW_10_127
*1244 TAP_TAPCELL_ROW_10_128
*1245 TAP_TAPCELL_ROW_10_129
*1246 TAP_TAPCELL_ROW_11_130
*1247 TAP_TAPCELL_ROW_11_131
*1248 TAP_TAPCELL_ROW_11_132
*1249 TAP_TAPCELL_ROW_12_133
*1250 TAP_TAPCELL_ROW_12_134
*1251 TAP_TAPCELL_ROW_12_135
*1252 TAP_TAPCELL_ROW_13_136
*1253 TAP_TAPCELL_ROW_13_137
*1254 TAP_TAPCELL_ROW_13_138
*1255 TAP_TAPCELL_ROW_14_139
*1256 TAP_TAPCELL_ROW_14_140
*1257 TAP_TAPCELL_ROW_14_141
*1258 TAP_TAPCELL_ROW_15_142
*1259 TAP_TAPCELL_ROW_15_143
*1260 TAP_TAPCELL_ROW_15_144
*1261 TAP_TAPCELL_ROW_16_145
*1262 TAP_TAPCELL_ROW_16_146
*1263 TAP_TAPCELL_ROW_16_147
*1264 TAP_TAPCELL_ROW_17_148
*1265 TAP_TAPCELL_ROW_17_149
*1266 TAP_TAPCELL_ROW_17_150
*1267 TAP_TAPCELL_ROW_18_151
*1268 TAP_TAPCELL_ROW_18_152
*1269 TAP_TAPCELL_ROW_18_153
*1270 TAP_TAPCELL_ROW_19_154
*1271 TAP_TAPCELL_ROW_19_155
*1272 TAP_TAPCELL_ROW_19_156
*1273 TAP_TAPCELL_ROW_1_100
*1274 TAP_TAPCELL_ROW_1_101
*1275 TAP_TAPCELL_ROW_1_102
*1276 TAP_TAPCELL_ROW_20_157
*1277 TAP_TAPCELL_ROW_20_158
*1278 TAP_TAPCELL_ROW_20_159
*1279 TAP_TAPCELL_ROW_21_160
*1280 TAP_TAPCELL_ROW_21_161
*1281 TAP_TAPCELL_ROW_21_162
*1282 TAP_TAPCELL_ROW_22_163
*1283 TAP_TAPCELL_ROW_22_164
*1284 TAP_TAPCELL_ROW_22_165
*1285 TAP_TAPCELL_ROW_23_166
*1286 TAP_TAPCELL_ROW_23_167
*1287 TAP_TAPCELL_ROW_23_168
*1288 TAP_TAPCELL_ROW_24_169
*1289 TAP_TAPCELL_ROW_24_170
*1290 TAP_TAPCELL_ROW_24_171
*1291 TAP_TAPCELL_ROW_25_172
*1292 TAP_TAPCELL_ROW_25_173
*1293 TAP_TAPCELL_ROW_25_174
*1294 TAP_TAPCELL_ROW_26_175
*1295 TAP_TAPCELL_ROW_26_176
*1296 TAP_TAPCELL_ROW_26_177
*1297 TAP_TAPCELL_ROW_27_178
*1298 TAP_TAPCELL_ROW_27_179
*1299 TAP_TAPCELL_ROW_27_180
*1300 TAP_TAPCELL_ROW_28_181
*1301 TAP_TAPCELL_ROW_28_182
*1302 TAP_TAPCELL_ROW_28_183
*1303 TAP_TAPCELL_ROW_29_184
*1304 TAP_TAPCELL_ROW_29_185
*1305 TAP_TAPCELL_ROW_29_186
*1306 TAP_TAPCELL_ROW_2_103
*1307 TAP_TAPCELL_ROW_2_104
*1308 TAP_TAPCELL_ROW_2_105
*1309 TAP_TAPCELL_ROW_30_187
*1310 TAP_TAPCELL_ROW_30_188
*1311 TAP_TAPCELL_ROW_30_189
*1312 TAP_TAPCELL_ROW_31_190
*1313 TAP_TAPCELL_ROW_31_191
*1314 TAP_TAPCELL_ROW_31_192
*1315 TAP_TAPCELL_ROW_32_193
*1316 TAP_TAPCELL_ROW_32_194
*1317 TAP_TAPCELL_ROW_32_195
*1318 TAP_TAPCELL_ROW_33_196
*1319 TAP_TAPCELL_ROW_33_197
*1320 TAP_TAPCELL_ROW_33_198
*1321 TAP_TAPCELL_ROW_34_199
*1322 TAP_TAPCELL_ROW_34_200
*1323 TAP_TAPCELL_ROW_34_201
*1324 TAP_TAPCELL_ROW_35_202
*1325 TAP_TAPCELL_ROW_35_203
*1326 TAP_TAPCELL_ROW_35_204
*1327 TAP_TAPCELL_ROW_36_205
*1328 TAP_TAPCELL_ROW_36_206
*1329 TAP_TAPCELL_ROW_36_207
*1330 TAP_TAPCELL_ROW_37_208
*1331 TAP_TAPCELL_ROW_37_209
*1332 TAP_TAPCELL_ROW_37_210
*1333 TAP_TAPCELL_ROW_38_211
*1334 TAP_TAPCELL_ROW_38_212
*1335 TAP_TAPCELL_ROW_38_213
*1336 TAP_TAPCELL_ROW_39_214
*1337 TAP_TAPCELL_ROW_39_215
*1338 TAP_TAPCELL_ROW_39_216
*1339 TAP_TAPCELL_ROW_3_106
*1340 TAP_TAPCELL_ROW_3_107
*1341 TAP_TAPCELL_ROW_3_108
*1342 TAP_TAPCELL_ROW_40_217
*1343 TAP_TAPCELL_ROW_40_218
*1344 TAP_TAPCELL_ROW_40_219
*1345 TAP_TAPCELL_ROW_41_220
*1346 TAP_TAPCELL_ROW_41_221
*1347 TAP_TAPCELL_ROW_41_222
*1348 TAP_TAPCELL_ROW_42_223
*1349 TAP_TAPCELL_ROW_42_224
*1350 TAP_TAPCELL_ROW_42_225
*1351 TAP_TAPCELL_ROW_43_226
*1352 TAP_TAPCELL_ROW_43_227
*1353 TAP_TAPCELL_ROW_43_228
*1354 TAP_TAPCELL_ROW_44_229
*1355 TAP_TAPCELL_ROW_44_230
*1356 TAP_TAPCELL_ROW_44_231
*1357 TAP_TAPCELL_ROW_45_232
*1358 TAP_TAPCELL_ROW_45_233
*1359 TAP_TAPCELL_ROW_45_234
*1360 TAP_TAPCELL_ROW_46_235
*1361 TAP_TAPCELL_ROW_46_236
*1362 TAP_TAPCELL_ROW_46_237
*1363 TAP_TAPCELL_ROW_46_238
*1364 TAP_TAPCELL_ROW_46_239
*1365 TAP_TAPCELL_ROW_46_240
*1366 TAP_TAPCELL_ROW_4_109
*1367 TAP_TAPCELL_ROW_4_110
*1368 TAP_TAPCELL_ROW_4_111
*1369 TAP_TAPCELL_ROW_5_112
*1370 TAP_TAPCELL_ROW_5_113
*1371 TAP_TAPCELL_ROW_5_114
*1372 TAP_TAPCELL_ROW_6_115
*1373 TAP_TAPCELL_ROW_6_116
*1374 TAP_TAPCELL_ROW_6_117
*1375 TAP_TAPCELL_ROW_7_118
*1376 TAP_TAPCELL_ROW_7_119
*1377 TAP_TAPCELL_ROW_7_120
*1378 TAP_TAPCELL_ROW_8_121
*1379 TAP_TAPCELL_ROW_8_122
*1380 TAP_TAPCELL_ROW_8_123
*1381 TAP_TAPCELL_ROW_9_124
*1382 TAP_TAPCELL_ROW_9_125
*1383 TAP_TAPCELL_ROW_9_126
*1384 _170_
*1385 _171_
*1386 _172_
*1387 _173_
*1388 _174_
*1389 _175_
*1390 _176_
*1391 _177_
*1392 _178_
*1393 _179_
*1394 _180_
*1395 _181_
*1396 _182_
*1397 _183_
*1398 _184_
*1399 _185_
*1400 _186_
*1401 _187_
*1402 _188_
*1403 _189_
*1404 _190_
*1405 _191_
*1406 _192_
*1407 _193_
*1408 _194_
*1409 _195_
*1410 _196_
*1411 _197_
*1412 _198_
*1413 _199_
*1414 _200_
*1415 _201_
*1416 _202_
*1417 _203_
*1418 _204_
*1419 _205_
*1420 _206_
*1421 _207_
*1422 _208_
*1423 _209_
*1424 _210_
*1425 _211_
*1426 _212_
*1427 _213_
*1428 _214_
*1429 _215_
*1430 _216_
*1431 _217_
*1432 _218_
*1433 _219_
*1434 _220_
*1435 _221_
*1436 _222_
*1437 _223_
*1438 _224_
*1439 _225_
*1440 _226_
*1441 _227_
*1442 _228_
*1443 _229_
*1444 _230_
*1445 _231_
*1446 _232_
*1447 _233_
*1448 _234_
*1449 _235_
*1450 _236_
*1451 _237_
*1452 _238_
*1453 _239_
*1454 _240_
*1455 _241_
*1456 _242_
*1457 _243_
*1458 _244_
*1459 _245_
*1460 _246_
*1461 _247_
*1462 _248_
*1463 _249_
*1464 _250_
*1465 _251_
*1466 _252_
*1467 _253_
*1468 _254_
*1469 _255_
*1470 _256_
*1471 _257_
*1472 _258_
*1473 _259_
*1474 _260_
*1475 _261_
*1476 _262_
*1477 _263_
*1478 _264_
*1479 _265_
*1480 _266_
*1481 _267_
*1482 _268_
*1483 _269_
*1484 _270_
*1485 _271_
*1486 _272_
*1487 _273_
*1488 _274_
*1489 _275_
*1490 _276_
*1491 _277_
*1492 _278_
*1493 _279_
*1494 _280_
*1495 _281_
*1496 _282_
*1497 _283_
*1498 _284_
*1499 _285_
*1500 _286_
*1501 _287_
*1502 _288_
*1503 _289_
*1504 _290_
*1505 _291_
*1506 _292_
*1507 _293_
*1508 _294_
*1509 _295_
*1510 _296_
*1511 _297_
*1512 _298_
*1513 _299_
*1514 _300_
*1515 _301_
*1516 _302_
*1517 _303_
*1518 _304_
*1519 _305_
*1520 _306_
*1521 _307_
*1522 _308_
*1523 _309_
*1524 _310_
*1525 _311_
*1526 _312_
*1527 _313_
*1528 _314_
*1529 _315_
*1530 _316_
*1531 _317_
*1532 _318_
*1533 _319_
*1534 _320_
*1535 _321_
*1536 _322_
*1537 _323_
*1538 _324_
*1539 _325_
*1540 _326_
*1541 _327_
*1542 _328_
*1543 _329_
*1544 _330_
*1545 _331_
*1546 _332_
*1547 _333_
*1548 _334_
*1549 _335_
*1550 _336_
*1551 _337_
*1552 _338_
*1553 _339_
*1554 _340_
*1555 _341_
*1556 _342_
*1557 _343_
*1558 _344_
*1559 _345_
*1560 _346_
*1561 _347_
*1562 input1
*1563 input10
*1564 input11
*1565 input12
*1566 input13
*1567 input14
*1568 input15
*1569 input16
*1570 input17
*1571 input18
*1572 input19
*1573 input2
*1574 input3
*1575 input4
*1576 input5
*1577 input6
*1578 input7
*1579 input8
*1580 input9
*1581 output20
*1582 output21
*1583 output22
*1584 output23
*1585 output24
*1586 output25
*1587 output26
*1588 output27
*1589 rebuffer1
*1590 rebuffer2
*1591 rebuffer3
*1592 rebuffer4

*PORTS
in1[0] I
in1[1] I
in1[2] I
in1[3] I
in1[4] I
in1[5] I
in1[6] I
in1[7] I
in2[0] I
in2[1] I
in2[2] I
in2[3] I
in2[4] I
in2[5] I
in2[6] I
in2[7] I
op[0] I
op[1] I
op[2] I
out[0] O
out[1] O
out[2] O
out[3] O
out[4] O
out[5] O
out[6] O
out[7] O

*D_NET *3 0.000603153
*CONN
*P in1[0] I
*I *1562:A I *D sky130_fd_sc_hd__dlymetal6s2s_1
*CAP
1 in1[0] 0.000301577
2 *1562:A 0.000301577
3 *1562:A *1569:A 0
4 *1562:A *1573:A 0
*RES
1 in1[0] *1562:A 49.8062 
*END

*D_NET *4 0.000734309
*CONN
*P in1[1] I
*I *1573:A I *D sky130_fd_sc_hd__clkbuf_2
*CAP
1 in1[1] 0.000342537
2 *1573:A 0.000342537
3 *1573:A *5:17 0
4 *1573:A *56:58 4.92359e-05
5 *1562:A *1573:A 0
*RES
1 in1[1] *1573:A 48.9255 
*END

*D_NET *5 0.000633414
*CONN
*P in1[2] I
*I *1574:A I *D sky130_fd_sc_hd__buf_2
*CAP
1 in1[2] 0.000316707
2 *1574:A 0
3 *5:17 0.000316707
4 *5:17 *1575:A 0
5 *5:17 *56:58 0
6 *1573:A *5:17 0
*RES
1 in1[2] *5:17 27.1584 
2 *5:17 *1574:A 23 
*END

*D_NET *6 0.000715807
*CONN
*P in1[3] I
*I *1575:A I *D sky130_fd_sc_hd__buf_2
*CAP
1 in1[3] 0.000357904
2 *1575:A 0.000357904
3 *1575:A *1576:A 0
4 *1575:A *56:58 0
5 *5:17 *1575:A 0
*RES
1 in1[3] *1575:A 49.5439 
*END

*D_NET *7 0.000622368
*CONN
*P in1[4] I
*I *1576:A I *D sky130_fd_sc_hd__buf_2
*CAP
1 in1[4] 0.000311184
2 *1576:A 0.000311184
3 *1576:A *1577:A 0
4 *1575:A *1576:A 0
*RES
1 in1[4] *1576:A 49.8062 
*END

*D_NET *8 0.000679392
*CONN
*P in1[5] I
*I *1577:A I *D sky130_fd_sc_hd__buf_2
*CAP
1 in1[5] 0.000339696
2 *1577:A 0.000339696
3 *1577:A *9:17 0
4 *1577:A *191:10 0
5 *1576:A *1577:A 0
*RES
1 in1[5] *1577:A 49.1918 
*END

*D_NET *9 0.000652629
*CONN
*P in1[6] I
*I *1578:A I *D sky130_fd_sc_hd__buf_2
*CAP
1 in1[6] 0.000326315
2 *1578:A 0
3 *9:17 0.000326315
4 *9:17 *1579:A 0
5 *1577:A *9:17 0
*RES
1 in1[6] *9:17 27.1584 
2 *9:17 *1578:A 23 
*END

*D_NET *10 0.000685604
*CONN
*P in1[7] I
*I *1579:A I *D sky130_fd_sc_hd__buf_4
*CAP
1 in1[7] 0.000342802
2 *1579:A 0.000342802
3 *9:17 *1579:A 0
*RES
1 in1[7] *1579:A 49.5439 
*END

*D_NET *11 0.000705723
*CONN
*P in2[0] I
*I *1580:A I *D sky130_fd_sc_hd__clkbuf_2
*CAP
1 in2[0] 0.000352861
2 *1580:A 0
3 *11:17 0.000352861
4 *11:17 *12:17 0
5 *11:17 *21:17 0
*RES
1 in2[0] *11:17 27.2827 
2 *11:17 *1580:A 23 
*END

*D_NET *12 0.000760724
*CONN
*P in2[1] I
*I *1563:A I *D sky130_fd_sc_hd__buf_2
*CAP
1 in2[1] 0.000380362
2 *1563:A 0
3 *12:17 0.000380362
4 *12:17 *13:17 0
5 *12:17 *203:25 0
6 *11:17 *12:17 0
*RES
1 in2[1] *12:17 28.2148 
2 *12:17 *1563:A 23 
*END

*D_NET *13 0.00073607
*CONN
*P in2[2] I
*I *1564:A I *D sky130_fd_sc_hd__clkbuf_2
*CAP
1 in2[2] 0.000368035
2 *1564:A 0
3 *13:17 0.000368035
4 *13:17 *1565:A 0
5 *13:17 *203:25 0
6 *12:17 *13:17 0
*RES
1 in2[2] *13:17 27.6348 
2 *13:17 *1564:A 23 
*END

*D_NET *14 0.00107099
*CONN
*P in2[3] I
*I *1565:A I *D sky130_fd_sc_hd__clkbuf_2
*CAP
1 in2[3] 0.000322972
2 *1565:A 0.000322972
3 *1565:A *15:17 0
4 *1565:A *203:16 0.000124987
5 *1565:A *203:25 9.26098e-05
6 *1565:A *206:87 0.000207453
7 *13:17 *1565:A 0
*RES
1 in2[3] *1565:A 49.6298 
*END

*D_NET *15 0.000725096
*CONN
*P in2[4] I
*I *1566:A I *D sky130_fd_sc_hd__clkbuf_4
*CAP
1 in2[4] 0.000362548
2 *1566:A 0
3 *15:17 0.000362548
4 *15:17 *16:17 0
5 *1565:A *15:17 0
*RES
1 in2[4] *15:17 27.2827 
2 *15:17 *1566:A 23 
*END

*D_NET *16 0.000760724
*CONN
*P in2[5] I
*I *1567:A I *D sky130_fd_sc_hd__buf_2
*CAP
1 in2[5] 0.000380362
2 *1567:A 0
3 *16:17 0.000380362
4 *16:17 *17:17 0
5 *16:17 *203:16 0
6 *15:17 *16:17 0
*RES
1 in2[5] *16:17 28.2148 
2 *16:17 *1567:A 23 
*END

*D_NET *17 0.000656203
*CONN
*P in2[6] I
*I *1568:A I *D sky130_fd_sc_hd__buf_2
*CAP
1 in2[6] 0.000328101
2 *1568:A 0
3 *17:17 0.000328101
4 *17:17 *1569:A 0
5 *17:17 *203:16 0
6 *16:17 *17:17 0
*RES
1 in2[6] *17:17 27.1584 
2 *17:17 *1568:A 23 
*END

*D_NET *18 0.000895669
*CONN
*P in2[7] I
*I *1569:A I *D sky130_fd_sc_hd__clkbuf_4
*CAP
1 in2[7] 0.000342924
2 *1569:A 0.000342924
3 *1569:A *205:12 0.000209821
4 *1562:A *1569:A 0
5 *17:17 *1569:A 0
*RES
1 in2[7] *1569:A 49.6298 
*END

*D_NET *19 0.000742726
*CONN
*P op[0] I
*I *1570:A I *D sky130_fd_sc_hd__buf_2
*CAP
1 op[0] 0.000371363
2 *1570:A 0
3 *19:17 0.000371363
4 *19:17 *20:17 0
5 *19:17 *93:10 0
*RES
1 op[0] *19:17 28.2148 
2 *19:17 *1570:A 23 
*END

*D_NET *20 0.000701288
*CONN
*P op[1] I
*I *1571:A I *D sky130_fd_sc_hd__clkbuf_4
*CAP
1 op[1] 0.000350644
2 *1571:A 0
3 *20:17 0.000350644
4 *20:17 *21:17 0
5 *19:17 *20:17 0
*RES
1 op[1] *20:17 27.6348 
2 *20:17 *1571:A 23 
*END

*D_NET *21 0.00087545
*CONN
*P op[2] I
*I *1572:A I *D sky130_fd_sc_hd__clkbuf_4
*CAP
1 op[2] 0.000409907
2 *1572:A 0
3 *21:17 0.000409907
4 *21:17 *203:25 0
5 *21:17 *203:31 5.56356e-05
6 *11:17 *21:17 0
7 *20:17 *21:17 0
*RES
1 op[2] *21:17 29.0434 
2 *21:17 *1572:A 23 
*END

*D_NET *22 0.000570727
*CONN
*P out[0] O
*I *1581:X O *D sky130_fd_sc_hd__buf_2
*CAP
1 out[0] 0.000278992
2 *1581:X 0.000278992
3 out[0] *1581:A 1.27424e-05
*RES
1 *1581:X out[0] 47.2507 
*END

*D_NET *23 0.000780808
*CONN
*P out[1] O
*I *1582:X O *D sky130_fd_sc_hd__buf_2
*CAP
1 out[1] 0.00037231
2 *1582:X 0.00037231
3 out[1] *182:12 3.61892e-05
4 out[1] *213:32 0
*RES
1 *1582:X out[1] 48.6592 
*END

*D_NET *24 0.000699581
*CONN
*P out[2] O
*I *1583:X O *D sky130_fd_sc_hd__buf_2
*CAP
1 out[2] 0.000340625
2 *1583:X 0.000340625
3 out[2] *50:41 0
4 out[2] *61:28 1.27424e-05
5 out[2] *214:10 5.58873e-06
*RES
1 *1583:X out[2] 47.2507 
*END

*D_NET *25 0.0010275
*CONN
*P out[3] O
*I *1584:X O *D sky130_fd_sc_hd__buf_2
*CAP
1 out[3] 0.000384852
2 *1584:X 0.000384852
3 out[3] *50:29 0.00012758
4 out[3] *182:18 0.000130212
*RES
1 *1584:X out[3] 48.6592 
*END

*D_NET *26 0.000802082
*CONN
*P out[4] O
*I *1585:X O *D sky130_fd_sc_hd__buf_2
*CAP
1 out[4] 0.000377474
2 *1585:X 0.000377474
3 out[4] *50:29 2.26497e-05
4 out[4] *182:18 2.44846e-05
*RES
1 *1585:X out[4] 47.2507 
*END

*D_NET *27 0.000920584
*CONN
*P out[5] O
*I *1586:X O *D sky130_fd_sc_hd__buf_2
*CAP
1 out[5] 0.000362087
2 *1586:X 0.000362087
3 out[5] *50:29 0.00012758
4 out[5] *62:20 2.55712e-05
5 out[5] *86:10 4.32584e-05
*RES
1 *1586:X out[5] 48.6592 
*END

*D_NET *28 0.00109975
*CONN
*P out[6] O
*I *1587:X O *D sky130_fd_sc_hd__buf_2
*CAP
1 out[6] 0.00053855
2 *1587:X 0.00053855
3 out[6] *133:68 2.26497e-05
4 out[6] *188:18 0
*RES
1 *1587:X out[6] 47.68 
*END

*D_NET *29 0.00132345
*CONN
*P out[7] O
*I *1588:X O *D sky130_fd_sc_hd__buf_6
*CAP
1 out[7] 0.000419476
2 *1588:X 0.000230538
3 *29:12 0.000650015
4 *29:12 *50:8 1.59071e-05
5 *29:12 *219:34 7.51453e-06
*RES
1 *1588:X *29:12 42.1532 
2 *29:12 out[7] 9.4448 
*END

*D_NET *30 0.0238525
*CONN
*I *1458:A1 I *D sky130_fd_sc_hd__o21a_2
*I *1459:B I *D sky130_fd_sc_hd__or3_4
*I *1456:X O *D sky130_fd_sc_hd__and3_1
*CAP
1 *1458:A1 0
2 *1459:B 0
3 *1456:X 0
4 *30:33 0.000685276
5 *30:27 0.0012238
6 *30:14 0.00128649
7 *30:12 0.00128649
8 *30:10 0.000736998
9 *30:6 0.00342316
10 *30:4 0.00322468
11 *30:6 *1456:A 0.000146238
12 *30:6 *1456:C 0.000164277
13 *30:6 *156:12 0.000996114
14 *30:6 *193:66 0.000930102
15 *30:10 *153:10 0.000524103
16 *30:10 *211:56 0.000526385
17 *30:14 *1437:A 0.00021677
18 *30:14 *1524:A2 6.63793e-06
19 *30:14 *1524:B1 0.000138607
20 *30:14 *1524:B2 2.64616e-05
21 *30:14 *94:8 0.000399218
22 *30:14 *131:95 0.000889177
23 *30:14 *132:14 0.00311193
24 *30:14 *142:49 1.21972e-05
25 *30:14 *148:30 0.000150964
26 *30:14 *210:40 0.000271909
27 *30:27 *67:24 0.000110915
28 *30:27 *147:25 0.000155533
29 *30:27 *153:10 0.000772916
30 *30:27 *211:56 0.000762773
31 *30:33 *69:14 0.000644696
32 *30:33 *131:62 0.000523246
33 *30:33 *131:70 0.000137368
34 *30:33 *155:28 4.82745e-05
35 *30:33 *156:37 9.26005e-05
36 *30:33 *195:16 0.000226148
*RES
1 *1456:X *30:4 23 
2 *30:4 *30:6 41.1179 
3 *30:6 *30:10 22.1879 
4 *30:10 *30:12 15 
5 *30:12 *30:14 36.3536 
6 *30:14 *1459:B 23 
7 *30:10 *30:27 44.1893 
8 *30:27 *30:33 31.24 
9 *30:33 *1458:A1 23 
*END

*D_NET *31 0.0102743
*CONN
*I *1458:A2 I *D sky130_fd_sc_hd__o21a_2
*I *1459:C I *D sky130_fd_sc_hd__or3_4
*I *1457:Y O *D sky130_fd_sc_hd__a21oi_1
*CAP
1 *1458:A2 0
2 *1459:C 3.49625e-05
3 *1457:Y 0.000159703
4 *31:36 0.000324887
5 *31:28 0.000812002
6 *31:20 0.00257926
7 *31:14 0.00257849
8 *31:8 0.000681005
9 *1459:C *33:8 5.20548e-05
10 *1459:C *131:95 9.58714e-05
11 *31:8 *201:71 9.4618e-05
12 *31:14 *55:31 0.000795745
13 *31:14 *131:70 5.3304e-05
14 *31:14 *131:148 0
15 *31:14 *148:133 0.000185755
16 *31:14 *210:28 0
17 *31:20 *1413:B1 3.70187e-05
18 *31:20 *1497:A 3.31122e-05
19 *31:20 *131:70 9.64943e-05
20 *31:20 *147:33 9.79908e-05
21 *31:20 *148:30 0
22 *31:28 *1413:A1 5.30121e-05
23 *31:28 *1413:B1 0.000299169
24 *31:28 *39:20 0.000592303
25 *31:28 *56:58 0
26 *31:28 *147:33 0.0004285
27 *31:28 *148:30 0
28 *31:36 *39:20 0.00010497
29 *31:36 *132:10 8.4047e-05
30 *31:36 *181:87 0
*RES
1 *1457:Y *31:8 40.0507 
2 *31:8 *31:14 26.6829 
3 *31:14 *31:20 43.2336 
4 *31:20 *31:28 43.5679 
5 *31:28 *31:36 35.1164 
6 *31:36 *1459:C 39.0979 
7 *31:14 *1458:A2 23 
*END

*D_NET *32 0.0274145
*CONN
*I *1533:B I *D sky130_fd_sc_hd__or3_2
*I *1528:A_N I *D sky130_fd_sc_hd__and2b_1
*I *1464:A2 I *D sky130_fd_sc_hd__o21ai_4
*I *1461:A_N I *D sky130_fd_sc_hd__and3b_2
*I *1458:X O *D sky130_fd_sc_hd__o21a_2
*CAP
1 *1533:B 0
2 *1528:A_N 0
3 *1464:A2 0
4 *1461:A_N 0
5 *1458:X 0.000526918
6 *32:65 0.000813182
7 *32:52 0.00107491
8 *32:45 0.000755135
9 *32:39 0.0017136
10 *32:26 0.00241105
11 *32:16 0.00351972
12 *32:8 0.00233233
13 *32:8 *131:62 0.000316066
14 *32:16 *66:36 0.00024576
15 *32:16 *69:14 0.000163488
16 *32:16 *117:10 0.00153052
17 *32:16 *193:50 0.000179319
18 *32:16 *200:53 0.000766618
19 *32:16 *211:56 0.000549434
20 *32:26 *34:12 1.74874e-06
21 *32:26 *66:36 3.7524e-05
22 *32:26 *77:24 0.000621368
23 *32:26 *81:20 0.000129473
24 *32:26 *155:55 3.10833e-05
25 *32:26 *173:8 0.000974991
26 *32:26 *173:33 2.33476e-05
27 *32:26 *184:10 0.000110258
28 *32:26 *200:24 0.000293785
29 *32:26 *200:53 0.000143279
30 *32:26 *205:78 4.67739e-05
31 *32:26 *211:14 0.000248065
32 *32:26 *211:56 0.000143839
33 *32:26 *220:22 9.86551e-06
34 *32:26 *229:91 0.000105138
35 *32:39 *68:40 0.000497519
36 *32:39 *69:14 7.74743e-05
37 *32:39 *117:10 0.000217091
38 *32:39 *210:22 0.00110655
39 *32:45 *1464:B1 0.000318666
40 *32:45 *38:6 0.000526753
41 *32:45 *38:14 0.000292155
42 *32:45 *38:48 2.1819e-05
43 *32:45 *130:33 2.812e-05
44 *32:45 *136:65 0.00204417
45 *32:52 *68:40 0.000149974
46 *32:52 *116:30 0.000211272
47 *32:52 *180:27 1.29944e-05
48 *32:52 *200:57 1.01855e-05
49 *32:52 *210:10 0.000186772
50 *32:52 *210:18 0.000111204
51 *32:52 *210:22 0.000321572
52 *32:65 *35:86 0.000444296
53 *32:65 *41:38 0
54 *32:65 *180:27 0.000457204
55 *32:65 *210:10 0.000560101
*RES
1 *1458:X *32:8 44.815 
2 *32:8 *32:16 30.7089 
3 *32:16 *32:26 40.3426 
4 *32:26 *1461:A_N 38 
5 *32:8 *32:39 19.2229 
6 *32:39 *32:45 38.5107 
7 *32:45 *1464:A2 23 
8 *32:39 *32:52 8.24429 
9 *32:52 *1528:A_N 38 
10 *32:52 *32:65 33.0836 
11 *32:65 *1533:B 23 
*END

*D_NET *33 0.0289391
*CONN
*I *1528:B I *D sky130_fd_sc_hd__and2b_1
*I *1461:B I *D sky130_fd_sc_hd__and3b_2
*I *1459:X O *D sky130_fd_sc_hd__or3_4
*CAP
1 *1528:B 3.01646e-05
2 *1461:B 0
3 *1459:X 0.000886935
4 *33:45 0.00170883
5 *33:30 0.00139854
6 *33:26 0.00273497
7 *33:16 0.00301509
8 *33:14 0.0022818
9 *33:8 0.00316874
10 *1528:B *98:8 2.45549e-06
11 *1528:B *186:63 5.56279e-05
12 *1528:B *215:6 2.45549e-06
13 *33:8 *131:95 0.000108848
14 *33:8 *148:30 0.000241673
15 *33:14 *117:20 0.000175903
16 *33:14 *120:27 8.36198e-05
17 *33:14 *148:40 0.000904374
18 *33:14 *159:10 8.57485e-05
19 *33:14 *209:46 0.00021677
20 *33:26 *66:36 0.00036298
21 *33:26 *68:8 0.000454968
22 *33:26 *69:14 0.000794678
23 *33:26 *95:26 2.24973e-05
24 *33:26 *153:10 0.000454968
25 *33:26 *155:55 0.000262739
26 *33:26 *156:22 0.00024932
27 *33:26 *164:54 0.000220502
28 *33:26 *190:14 0.00021425
29 *33:26 *195:16 0.000406184
30 *33:26 *195:30 0.000201454
31 *33:26 *228:43 0.000142717
32 *33:30 *1446:B2 2.18286e-05
33 *33:30 *144:28 0.00132448
34 *33:30 *227:81 5.75149e-05
35 *33:30 *227:94 0.000218549
36 *33:45 *1409:B 4.96264e-05
37 *33:45 *61:18 1.0092e-05
38 *33:45 *66:32 0.000113451
39 *33:45 *67:24 0.000332467
40 *33:45 *68:8 0.00182432
41 *33:45 *98:10 0.000336688
42 *33:45 *128:27 0.00054962
43 *33:45 *153:10 0.00231811
44 *33:45 *200:57 0.00052127
45 *33:45 *211:56 1.12487e-05
46 *33:45 *215:12 0.000307963
47 *1459:C *33:8 5.20548e-05
*RES
1 *1459:X *33:8 49.1029 
2 *33:8 *33:14 44.4557 
3 *33:14 *33:16 15 
4 *33:16 *33:26 47.0509 
5 *33:26 *33:30 34.6786 
6 *33:30 *1461:B 23 
7 *33:16 *33:45 49.6936 
8 *33:45 *1528:B 38.6214 
*END

*D_NET *34 0.00571365
*CONN
*I *1529:B I *D sky130_fd_sc_hd__nor2_1
*I *1461:C I *D sky130_fd_sc_hd__and3b_2
*I *1460:X O *D sky130_fd_sc_hd__or2b_1
*CAP
1 *1529:B 0
2 *1461:C 2.11691e-05
3 *1460:X 0
4 *34:29 0.000390804
5 *34:12 0.00142195
6 *34:4 0.00179159
7 *1461:C *35:12 5.96334e-05
8 *1461:C *144:30 5.73018e-05
9 *34:12 *1446:B2 8.48003e-05
10 *34:12 *1460:B_N 4.38638e-05
11 *34:12 *35:33 0
12 *34:12 *130:67 2.00789e-05
13 *34:12 *142:112 0.00025569
14 *34:12 *158:33 8.4047e-05
15 *34:12 *168:36 0.000335572
16 *34:12 *220:22 0
17 *34:29 *63:10 0.000394555
18 *34:29 *137:32 0.000172949
19 *34:29 *140:16 0.000212386
20 *34:29 *152:20 0.000341983
21 *34:29 *171:20 2.3529e-05
22 *32:26 *34:12 1.74874e-06
*RES
1 *1460:X *34:4 23 
2 *34:4 *34:12 36.0043 
3 *34:12 *1461:C 38.668 
4 *34:4 *34:29 40.0879 
5 *34:29 *1529:B 23 
*END

*D_NET *35 0.03028
*CONN
*I *1533:C I *D sky130_fd_sc_hd__or3_2
*I *1464:A1 I *D sky130_fd_sc_hd__o21ai_4
*I *1530:A I *D sky130_fd_sc_hd__or3b_1
*I *1461:X O *D sky130_fd_sc_hd__and3b_2
*CAP
1 *1533:C 0
2 *1464:A1 0
3 *1530:A 0
4 *1461:X 0.000248687
5 *35:86 0.000944491
6 *35:82 0.00171749
7 *35:71 0.00101913
8 *35:63 0.00260305
9 *35:61 0.00259836
10 *35:55 0.000472979
11 *35:41 0.000460075
12 *35:33 0.000635267
13 *35:18 0.000730326
14 *35:12 0.00138574
15 *35:12 *1446:B2 0.000100061
16 *35:12 *1590:A 5.3304e-05
17 *35:12 *144:28 0.000100061
18 *35:12 *144:30 0.000173415
19 *35:12 *227:94 0.000239389
20 *35:18 *53:91 0.00128404
21 *35:18 *64:10 4.5051e-05
22 *35:18 *99:16 0.00171194
23 *35:18 *118:10 0.000404457
24 *35:18 *178:12 0.000406588
25 *35:18 *196:24 0.000294968
26 *35:33 *118:10 0.000207798
27 *35:33 *145:10 0.000261458
28 *35:33 *178:12 0.000217079
29 *35:33 *220:22 0.000234332
30 *35:41 *135:28 0.000426441
31 *35:41 *152:16 0.000426441
32 *35:41 *183:168 0.000135037
33 *35:41 *228:43 4.2766e-05
34 *35:55 *142:112 9.64943e-05
35 *35:55 *152:16 0.000133658
36 *35:55 *170:18 2.64616e-05
37 *35:55 *195:63 9.41704e-05
38 *35:61 *141:26 3.04115e-05
39 *35:61 *152:16 0.00021036
40 *35:63 *1525:B 5.58873e-06
41 *35:63 *43:30 9.28078e-06
42 *35:63 *44:20 0.00244403
43 *35:63 *44:31 0
44 *35:63 *94:16 0
45 *35:63 *130:43 3.0657e-05
46 *35:63 *141:26 0.000718723
47 *35:63 *158:14 1.68056e-05
48 *35:63 *220:16 0
49 *35:63 *220:22 0
50 *35:71 *60:16 0.000217479
51 *35:71 *135:55 6.784e-05
52 *35:71 *175:20 0.000177289
53 *35:71 *224:8 0.000348212
54 *35:82 *60:16 0.00109938
55 *35:82 *60:35 0.000536387
56 *35:82 *135:55 0.000477933
57 *35:86 *1533:A 0.00157717
58 *35:86 *138:37 0.000229044
59 *35:86 *182:6 0.00164847
60 *1461:C *35:12 5.96334e-05
61 *32:65 *35:86 0.000444296
62 *34:12 *35:33 0
*RES
1 *1461:X *35:12 45.4571 
2 *35:12 *35:18 41.4107 
3 *35:18 *1530:A 23 
4 *35:12 *35:33 39.28 
5 *35:33 *35:41 37.3536 
6 *35:41 *35:55 49.4743 
7 *35:55 *35:61 19.64 
8 *35:61 *35:63 46.98 
9 *35:63 *35:71 36.9186 
10 *35:71 *1464:A1 38 
11 *35:71 *35:82 37.33 
12 *35:82 *35:86 30.5329 
13 *35:86 *1533:C 23 
*END

*D_NET *36 0.00528009
*CONN
*I *1463:B I *D sky130_fd_sc_hd__and2_4
*I *1462:X O *D sky130_fd_sc_hd__or3_1
*CAP
1 *1463:B 0
2 *1462:X 0.000202853
3 *36:16 0.00113555
4 *36:8 0.0013384
5 *36:8 *134:23 0.000143933
6 *36:8 *150:27 4.16764e-05
7 *36:8 *187:10 7.8371e-05
8 *36:16 *1398:A 2.69859e-05
9 *36:16 *37:10 4.64347e-05
10 *36:16 *46:8 0.000135037
11 *36:16 *130:43 9.41704e-05
12 *36:16 *142:14 0.00026025
13 *36:16 *142:78 8.41122e-05
14 *36:16 *181:28 9.58714e-05
15 *36:16 *186:8 0.000820482
16 *36:16 *211:64 0.000627485
17 *36:16 *230:54 0.00014847
*RES
1 *1462:X *36:8 42.3707 
2 *36:8 *36:16 39.4843 
3 *36:16 *1463:B 23 
*END

*D_NET *37 0.0103582
*CONN
*I *1533:A I *D sky130_fd_sc_hd__or3_2
*I *1464:B1 I *D sky130_fd_sc_hd__o21ai_4
*I *1463:X O *D sky130_fd_sc_hd__and2_4
*CAP
1 *1533:A 0.000667148
2 *1464:B1 6.47813e-05
3 *1463:X 0.000316679
4 *37:23 0.00177553
5 *37:10 0.00148984
6 *1464:B1 *38:6 0.000229801
7 *1464:B1 *38:48 0.000102389
8 *1533:A *102:6 0.000820859
9 *1533:A *129:46 2.32004e-05
10 *1533:A *138:37 0.000539188
11 *1533:A *210:121 0.000135037
12 *37:10 *44:16 0.000108681
13 *37:10 *44:31 0.000279307
14 *37:10 *186:8 6.17437e-06
15 *37:10 *196:95 2.26497e-05
16 *37:10 *196:110 5.95452e-05
17 *37:10 *230:54 0.000144494
18 *37:23 *44:31 0.00163063
19 *37:23 *49:18 0
20 *37:23 *75:14 0
21 *37:23 *183:70 0
22 *37:23 *208:59 0
23 *32:45 *1464:B1 0.000318666
24 *35:86 *1533:A 0.00157717
25 *36:16 *37:10 4.64347e-05
*RES
1 *1463:X *37:10 45.0014 
2 *37:10 *1464:B1 41.48 
3 *37:10 *37:23 37.33 
4 *37:23 *1533:A 47.505 
*END

*D_NET *38 0.0153275
*CONN
*I *1589:A I *D sky130_fd_sc_hd__dlygate4sd1_1
*I *1471:A1 I *D sky130_fd_sc_hd__a311o_4
*I *1550:A1 I *D sky130_fd_sc_hd__a31o_1
*I *1464:Y O *D sky130_fd_sc_hd__o21ai_4
*CAP
1 *1589:A 0
2 *1471:A1 3.80201e-05
3 *1550:A1 0.000721079
4 *1464:Y 0
5 *38:48 0.000159943
6 *38:31 0.000946948
7 *38:14 0.00125682
8 *38:6 0.00187476
9 *38:4 0.000590038
10 *1471:A1 *1471:A3 0.000139346
11 *1471:A1 *1488:A3 0.000139346
12 *1550:A1 *42:26 0.00109423
13 *1550:A1 *199:50 0.001668
14 *38:6 *130:33 0.00122831
15 *38:14 *41:38 5.50106e-05
16 *38:14 *42:14 0.000346978
17 *38:14 *55:31 0
18 *38:14 *130:33 0.000309001
19 *38:14 *136:65 0.000124373
20 *38:14 *180:19 7.28792e-05
21 *38:31 *66:32 2.26497e-05
22 *38:31 *148:10 0.0017241
23 *38:31 *199:63 0.00139514
24 *38:48 *43:30 2.72789e-05
25 *38:48 *44:31 0
26 *38:48 *130:33 0.000130971
27 *38:48 *130:43 7.81176e-05
28 *38:48 *130:165 1.12487e-05
29 *1464:B1 *38:6 0.000229801
30 *1464:B1 *38:48 0.000102389
31 *32:45 *38:6 0.000526753
32 *32:45 *38:14 0.000292155
33 *32:45 *38:48 2.1819e-05
*RES
1 *1464:Y *38:4 23 
2 *38:4 *38:6 13.9614 
3 *38:6 *38:14 43.3607 
4 *38:14 *1550:A1 42.6993 
5 *38:6 *38:31 41.2657 
6 *38:31 *1471:A1 39.5743 
7 *38:4 *38:48 34.1843 
8 *38:48 *1589:A 23 
*END

*D_NET *39 0.0139816
*CONN
*I *1466:B I *D sky130_fd_sc_hd__xnor2_2
*I *1465:X O *D sky130_fd_sc_hd__o21a_1
*CAP
1 *1466:B 0
2 *1465:X 0.000377927
3 *39:28 0.000691253
4 *39:24 0.00131517
5 *39:20 0.00211083
6 *39:8 0.00186484
7 *39:8 *1465:A1 0.000220492
8 *39:8 *1507:B1 6.82228e-06
9 *39:8 *200:14 0.000227529
10 *39:20 *1513:A2 0
11 *39:20 *55:20 0.000114566
12 *39:20 *56:58 0
13 *39:20 *131:101 8.78333e-05
14 *39:20 *132:10 0.000106354
15 *39:20 *147:25 1.85916e-05
16 *39:20 *148:30 0
17 *39:20 *156:41 1.32314e-05
18 *39:20 *181:87 0
19 *39:20 *206:31 3.85802e-05
20 *39:24 *93:22 0.000375204
21 *39:24 *149:22 0.00199612
22 *39:24 *157:12 3.01561e-05
23 *39:24 *203:16 8.51167e-05
24 *39:24 *203:25 6.1709e-05
25 *39:24 *206:83 0.000250839
26 *39:24 *206:87 0.00188618
27 *39:28 *1466:A 0.00113074
28 *39:28 *149:22 0.000274234
29 *31:28 *39:20 0.000592303
30 *31:36 *39:20 0.00010497
*RES
1 *1465:X *39:8 43.3857 
2 *39:8 *39:20 44.9114 
3 *39:20 *39:24 45.4293 
4 *39:24 *39:28 30.8671 
5 *39:28 *1466:B 23 
*END

*D_NET *40 0.0209523
*CONN
*I *1468:B I *D sky130_fd_sc_hd__nor2_2
*I *1467:B I *D sky130_fd_sc_hd__nand2_2
*I *1466:Y O *D sky130_fd_sc_hd__xnor2_2
*CAP
1 *1468:B 0
2 *1467:B 0
3 *1466:Y 2.32701e-05
4 *40:35 0.000118135
5 *40:29 0.00424022
6 *40:27 0.00412208
7 *40:20 0.000980011
8 *40:14 0.00197057
9 *40:8 0.00101383
10 *40:8 *53:6 5.3304e-05
11 *40:8 *134:33 5.3304e-05
12 *40:14 *53:24 0.000191591
13 *40:14 *128:8 0.00142153
14 *40:14 *139:10 0.00103992
15 *40:14 *167:64 0.000103342
16 *40:14 *225:84 0.000454041
17 *40:14 *230:10 7.61824e-05
18 *40:14 *230:20 2.55642e-05
19 *40:20 *53:24 0.000115688
20 *40:20 *70:16 0.000301201
21 *40:20 *81:32 0.000119184
22 *40:20 *137:32 8.73233e-05
23 *40:20 *139:10 0.000781892
24 *40:20 *152:20 0.00017761
25 *40:20 *225:64 8.93766e-05
26 *40:20 *230:20 0.00201982
27 *40:29 *1591:A 0.000478569
28 *40:29 *109:18 0.000305643
29 *40:29 *155:32 0.000114824
30 *40:29 *172:24 7.74423e-05
31 *40:29 *223:8 0.00014375
32 *40:35 *170:31 0.00025307
*RES
1 *1466:Y *40:8 38.6214 
2 *40:8 *40:14 29.435 
3 *40:14 *40:20 44.6629 
4 *40:20 *1467:B 23 
5 *40:14 *40:27 15 
6 *40:27 *40:29 57.7929 
7 *40:29 *40:35 33.3143 
8 *40:35 *1468:B 23 
*END

*D_NET *41 0.0187015
*CONN
*I *1471:A3 I *D sky130_fd_sc_hd__a311o_4
*I *1541:B_N I *D sky130_fd_sc_hd__or2b_2
*I *1550:A3 I *D sky130_fd_sc_hd__a31o_1
*I *1467:Y O *D sky130_fd_sc_hd__nand2_2
*CAP
1 *1471:A3 0.000250875
2 *1541:B_N 0
3 *1550:A3 0.000162583
4 *1467:Y 5.56561e-05
5 *41:38 0.00179846
6 *41:27 0.00210019
7 *41:10 0.0023014
8 *41:8 0.00164187
9 *1471:A3 *1488:A2 0.000700271
10 *1471:A3 *1488:A3 8.10145e-05
11 *1471:A3 *49:36 0.00100516
12 *1550:A3 *117:6 0.000136841
13 *1550:A3 *199:50 0.000344591
14 *41:8 *152:20 9.67842e-05
15 *41:10 *53:24 0.000141646
16 *41:10 *133:18 0.000155634
17 *41:10 *133:20 0.001109
18 *41:10 *133:26 0.000504796
19 *41:10 *167:64 0.000212517
20 *41:10 *188:96 0.00355516
21 *41:27 *42:14 2.64616e-05
22 *41:27 *42:26 4.67488e-05
23 *41:27 *133:18 0.00021039
24 *41:27 *136:61 8.27123e-05
25 *41:27 *136:65 0.000121404
26 *41:27 *188:96 0.000202477
27 *41:27 *225:82 0.000429894
28 *41:38 *42:14 0.000175628
29 *41:38 *55:31 0
30 *41:38 *112:10 4.38353e-05
31 *41:38 *130:12 1.142e-05
32 *41:38 *136:65 0.000318365
33 *41:38 *180:19 0.000483376
34 *41:38 *210:10 0
35 *41:38 *229:59 0
36 *41:38 *229:74 0
37 *1471:A1 *1471:A3 0.000139346
38 *32:65 *41:38 0
39 *38:14 *41:38 5.50106e-05
*RES
1 *1467:Y *41:8 39.0979 
2 *41:8 *41:10 48.3886 
3 *41:10 *1550:A3 41.9564 
4 *41:10 *41:27 27.18 
5 *41:27 *1541:B_N 23 
6 *41:27 *41:38 46.1336 
7 *41:38 *1471:A3 49.6 
*END

*D_NET *42 0.0227245
*CONN
*I *1471:B1 I *D sky130_fd_sc_hd__a311o_4
*I *1541:A I *D sky130_fd_sc_hd__or2b_2
*I *1550:B1 I *D sky130_fd_sc_hd__a31o_1
*I *1468:Y O *D sky130_fd_sc_hd__nor2_2
*CAP
1 *1471:B1 0
2 *1541:A 0
3 *1550:B1 0
4 *1468:Y 0
5 *42:42 0.000859855
6 *42:26 0.00109701
7 *42:14 0.00266
8 *42:10 0.00303395
9 *42:8 0.00219494
10 *42:4 0.00158384
11 *42:8 *137:73 0.000259968
12 *42:8 *179:8 0.0013358
13 *42:8 *185:25 0.00146355
14 *42:10 *137:55 1.13451e-05
15 *42:10 *183:28 2.17571e-05
16 *42:10 *183:53 0.000282947
17 *42:10 *185:10 0.00130901
18 *42:10 *196:114 0.000110913
19 *42:10 *197:37 0.000568027
20 *42:14 *130:33 0.000642061
21 *42:26 *71:10 8.4047e-05
22 *42:26 *225:76 8.62876e-05
23 *42:42 *45:17 0.000261229
24 *42:42 *49:36 5.3304e-05
25 *42:42 *155:20 0.00013127
26 *42:42 *185:10 0.00104803
27 *42:42 *196:114 0.00190884
28 *42:42 *225:107 2.64616e-05
29 *1550:A1 *42:26 0.00109423
30 *38:14 *42:14 0.000346978
31 *41:27 *42:14 2.64616e-05
32 *41:27 *42:26 4.67488e-05
33 *41:38 *42:14 0.000175628
*RES
1 *1468:Y *42:4 23 
2 *42:4 *42:8 46.5893 
3 *42:8 *42:10 18.4564 
4 *42:10 *42:14 36.1079 
5 *42:14 *42:26 45.6807 
6 *42:26 *1550:B1 23 
7 *42:14 *1541:A 23 
8 *42:10 *42:42 41.825 
9 *42:42 *1471:B1 23 
*END

*D_NET *43 0.0155188
*CONN
*I *1470:B I *D sky130_fd_sc_hd__nand2_1
*I *1469:X O *D sky130_fd_sc_hd__or2_1
*CAP
1 *1470:B 0
2 *1469:X 0.000263469
3 *43:30 0.00011945
4 *43:22 0.00261525
5 *43:18 0.00375955
6 *43:16 0.00185025
7 *43:8 0.000849959
8 *43:8 *188:61 0.00018536
9 *43:16 *50:29 0.000397539
10 *43:16 *86:10 0.000400015
11 *43:16 *182:18 6.17437e-06
12 *43:18 *62:10 0.00238368
13 *43:18 *87:10 0.000531324
14 *43:22 *175:20 0.00176826
15 *43:30 *44:31 0
16 *43:30 *130:43 0
17 *43:30 *175:20 0.000123029
18 *43:30 *224:8 0.000228925
19 *35:63 *43:30 9.28078e-06
20 *38:48 *43:30 2.72789e-05
*RES
1 *1469:X *43:8 41.48 
2 *43:8 *43:16 44.3136 
3 *43:16 *43:18 43.4586 
4 *43:18 *43:22 47.0657 
5 *43:22 *43:30 33.6768 
6 *43:30 *1470:B 23 
*END

*D_NET *44 0.0141447
*CONN
*I *1471:C1 I *D sky130_fd_sc_hd__a311o_4
*I *1551:A I *D sky130_fd_sc_hd__nand2_1
*I *1470:Y O *D sky130_fd_sc_hd__nand2_1
*CAP
1 *1471:C1 0.000254286
2 *1551:A 4.37654e-05
3 *1470:Y 4.99221e-05
4 *44:31 0.00160107
5 *44:20 0.00119606
6 *44:16 0.00130641
7 *44:8 0.00155082
8 *1471:C1 *1448:B 0.000493803
9 *1471:C1 *49:36 0.000184735
10 *1471:C1 *225:107 4.75751e-05
11 *1551:A *118:8 0.000143259
12 *1551:A *149:73 7.43114e-05
13 *44:8 *224:8 5.3304e-05
14 *44:16 *186:8 0.000168721
15 *44:16 *220:16 0.000108681
16 *44:16 *230:54 0.000312772
17 *44:20 *1421:B 7.33953e-05
18 *44:20 *130:43 4.85126e-05
19 *44:20 *141:10 0.000110008
20 *44:20 *141:16 0.000165847
21 *44:20 *158:14 0.000645834
22 *44:20 *169:20 4.99753e-06
23 *44:20 *194:39 0.000873679
24 *44:20 *211:70 0.000160182
25 *44:31 *49:18 0
26 *44:31 *130:165 0
27 *44:31 *220:16 1.01436e-05
28 *35:63 *44:20 0.00244403
29 *35:63 *44:31 0
30 *37:10 *44:16 0.000108681
31 *37:10 *44:31 0.000279307
32 *37:23 *44:31 0.00163063
33 *38:48 *44:31 0
34 *43:30 *44:31 0
*RES
1 *1470:Y *44:8 38.6214 
2 *44:8 *44:16 35.0336 
3 *44:16 *44:20 49.3029 
4 *44:20 *1551:A 24.5743 
5 *44:8 *44:31 43.6686 
6 *44:31 *1471:C1 29.815 
*END

*D_NET *45 0.0328715
*CONN
*I *1478:C I *D sky130_fd_sc_hd__nand3_1
*I *1490:A3 I *D sky130_fd_sc_hd__a311oi_4
*I *1477:A2 I *D sky130_fd_sc_hd__a21o_1
*I *1552:A I *D sky130_fd_sc_hd__and3_1
*I *1488:A3 I *D sky130_fd_sc_hd__a31o_1
*I *1471:X O *D sky130_fd_sc_hd__a311o_4
*CAP
1 *1478:C 0
2 *1490:A3 0
3 *1477:A2 0.000257547
4 *1552:A 0.000310603
5 *1488:A3 0.000319121
6 *1471:X 0
7 *45:80 0.000680945
8 *45:33 0.00175835
9 *45:29 0.00226723
10 *45:23 0.0023901
11 *45:21 0.00183768
12 *45:17 0.00172248
13 *45:4 0.000836049
14 *1477:A2 *1477:B1 9.53896e-05
15 *1477:A2 *51:10 3.71251e-05
16 *1477:A2 *188:35 0
17 *1477:A2 *196:36 0.000646184
18 *1488:A3 *1488:A2 0.00101033
19 *1488:A3 *49:36 8.59854e-05
20 *1488:A3 *60:47 0.00109281
21 *1488:A3 *196:122 1.72202e-05
22 *1488:A3 *225:107 0.000353428
23 *1552:A *72:10 5.41288e-05
24 *1552:A *188:35 3.98818e-05
25 *1552:A *196:36 6.16283e-05
26 *45:17 *137:131 0.00104644
27 *45:17 *155:20 0.000128683
28 *45:17 *185:10 7.67427e-05
29 *45:17 *196:114 0
30 *45:21 *66:14 0.00242164
31 *45:21 *151:41 4.67488e-05
32 *45:23 *150:20 2.11157e-05
33 *45:23 *150:27 0.00163689
34 *45:23 *154:21 0.00164969
35 *45:29 *59:8 2.55642e-05
36 *45:29 *59:31 0.000182585
37 *45:29 *150:20 0.00249214
38 *45:29 *154:10 0.000237222
39 *45:29 *154:21 0.00246969
40 *45:29 *189:10 0.000354873
41 *45:33 *1508:A 1.28035e-05
42 *45:33 *47:39 8.09891e-05
43 *45:33 *57:48 0.000236678
44 *45:33 *59:8 0.000633147
45 *45:33 *74:26 0.000121973
46 *45:33 *78:30 0.000588489
47 *45:33 *136:106 0
48 *45:33 *189:10 0.000714311
49 *45:33 *226:56 0.000417625
50 *45:33 *226:69 0.000454782
51 *45:80 *1462:A 5.37957e-05
52 *45:80 *1462:B 9.50292e-05
53 *45:80 *1478:B 7.15982e-05
54 *45:80 *50:41 1.93186e-05
55 *45:80 *115:18 9.58714e-05
56 *45:80 *116:10 3.17634e-05
57 *45:80 *187:10 4.96717e-05
58 *45:80 *187:24 4.78593e-05
59 *1471:A1 *1488:A3 0.000139346
60 *1471:A3 *1488:A3 8.10145e-05
61 *42:42 *45:17 0.000261229
*RES
1 *1471:X *45:4 23 
2 *45:4 *1488:A3 39.3436 
3 *45:4 *45:17 44.2307 
4 *45:17 *45:21 41.825 
5 *45:21 *45:23 22.6821 
6 *45:23 *45:29 40.3514 
7 *45:29 *45:33 48.5986 
8 *45:33 *1552:A 28.3857 
9 *45:33 *1477:A2 31.3064 
10 *45:29 *1490:A3 38 
11 *45:23 *45:80 28.6714 
12 *45:80 *1478:C 23 
*END

*D_NET *46 0.012098
*CONN
*I *1473:B I *D sky130_fd_sc_hd__xnor2_2
*I *1472:X O *D sky130_fd_sc_hd__a21o_1
*CAP
1 *1473:B 0
2 *1472:X 0.000126469
3 *46:10 0.0022856
4 *46:8 0.00241207
5 *46:10 *1540:A2 0.000240272
6 *46:10 *78:22 0.000277755
7 *46:10 *102:26 0.000177066
8 *46:10 *108:20 3.21115e-05
9 *46:10 *131:58 0.00250918
10 *46:10 *136:90 0.000411834
11 *46:10 *144:51 4.3184e-05
12 *46:10 *146:18 0.00144339
13 *46:10 *149:71 4.88671e-05
14 *46:10 *151:10 0.00022913
15 *46:10 *166:10 0.000359669
16 *46:10 *192:28 0.000185696
17 *46:10 *194:24 0.000529886
18 *46:10 *204:83 0.000556636
19 *46:10 *205:53 0
20 *46:10 *218:10 9.41865e-05
21 *36:16 *46:8 0.000135037
*RES
1 *1472:X *46:8 39.5743 
2 *46:8 *46:10 64.235 
3 *46:10 *1473:B 38 
*END

*D_NET *47 0.023982
*CONN
*I *1475:B I *D sky130_fd_sc_hd__nand2_2
*I *1474:B I *D sky130_fd_sc_hd__or2_2
*I *1473:Y O *D sky130_fd_sc_hd__xnor2_2
*CAP
1 *1475:B 0.000400659
2 *1474:B 0
3 *1473:Y 0
4 *47:41 0.00164678
5 *47:39 0.0020183
6 *47:22 0.000686615
7 *47:20 0.00153021
8 *47:12 0.00134908
9 *47:4 0.00127766
10 *1475:B *1475:A 5.56356e-05
11 *1475:B *49:6 1.34914e-05
12 *1475:B *137:63 9.67816e-05
13 *1475:B *137:90 5.46873e-05
14 *1475:B *222:66 0.000404466
15 *47:12 *74:26 0.000118746
16 *47:12 *80:10 0.000772582
17 *47:12 *196:36 0.000336448
18 *47:12 *196:47 6.77225e-05
19 *47:12 *211:41 0.000138859
20 *47:12 *213:26 3.72639e-05
21 *47:20 *48:8 0.000270177
22 *47:20 *57:44 0.000829527
23 *47:20 *225:44 5.56356e-05
24 *47:22 *1510:B 4.66047e-05
25 *47:22 *48:8 0.00305792
26 *47:22 *57:44 0.000366023
27 *47:22 *225:24 4.56951e-05
28 *47:22 *225:28 0.00182201
29 *47:22 *227:21 0.000353214
30 *47:39 *1426:A 7.29358e-05
31 *47:39 *1508:A 2.26497e-05
32 *47:39 *57:48 0.000839172
33 *47:39 *73:23 0.000697832
34 *47:39 *78:30 0.000642049
35 *47:39 *131:48 0.000198548
36 *47:39 *189:10 0.000303148
37 *47:39 *211:41 0.000214469
38 *47:41 *73:23 0.000169416
39 *47:41 *134:12 0.000388706
40 *47:41 *142:94 0
41 *47:41 *142:106 0
42 *47:41 *150:20 0.000125913
43 *47:41 *189:10 0.00237338
44 *45:33 *47:39 8.09891e-05
*RES
1 *1473:Y *47:4 23 
2 *47:4 *47:12 43.34 
3 *47:12 *47:20 17.9593 
4 *47:20 *47:22 33.9714 
5 *47:22 *1474:B 23 
6 *47:4 *47:39 40.0125 
7 *47:39 *47:41 35.5354 
8 *47:41 *1475:B 46.2443 
*END

*D_NET *48 0.0309614
*CONN
*I *1476:A I *D sky130_fd_sc_hd__nand2_1
*I *1487:A I *D sky130_fd_sc_hd__inv_2
*I *1474:X O *D sky130_fd_sc_hd__or2_2
*CAP
1 *1476:A 0
2 *1487:A 0
3 *1474:X 2.34823e-05
4 *48:45 0.000650175
5 *48:28 0.00721046
6 *48:16 0.00820676
7 *48:8 0.00287621
8 *48:6 0.00255357
9 *48:8 *227:8 5.70419e-05
10 *48:8 *227:21 4.19743e-05
11 *48:16 *168:36 1.28427e-05
12 *48:16 *177:24 2.47094e-05
13 *48:16 *220:32 8.61094e-06
14 *48:28 *60:16 0.000377149
15 *48:28 *84:26 0
16 *48:28 *88:24 0.00302631
17 *48:28 *102:14 2.40669e-05
18 *48:28 *118:10 0.000107151
19 *48:28 *130:165 9.58913e-05
20 *48:28 *135:28 0.000291992
21 *48:28 *141:26 0.000200681
22 *48:28 *158:14 0.000177552
23 *48:28 *177:24 8.99458e-05
24 *48:45 *1476:B 0.000280283
25 *48:45 *105:12 3.84954e-05
26 *48:45 *134:134 0.000284858
27 *48:45 *168:36 0
28 *48:45 *181:139 0.000159375
29 *48:45 *219:34 0.000277792
30 *48:45 *220:32 0.000535971
31 *47:20 *48:8 0.000270177
32 *47:22 *48:8 0.00305792
*RES
1 *1474:X *48:6 23.4971 
2 *48:6 *48:8 39.2121 
3 *48:8 *48:16 24.1156 
4 *48:16 *48:28 46.1239 
5 *48:28 *1487:A 38 
6 *48:16 *48:45 39.7061 
7 *48:45 *1476:A 23 
*END

*D_NET *49 0.0376547
*CONN
*I *1490:A1 I *D sky130_fd_sc_hd__a311oi_4
*I *1476:B I *D sky130_fd_sc_hd__nand2_1
*I *1488:A1 I *D sky130_fd_sc_hd__a31o_1
*I *1475:Y O *D sky130_fd_sc_hd__nand2_2
*CAP
1 *1490:A1 0
2 *1476:B 0.000139876
3 *1488:A1 0
4 *1475:Y 0.00124968
5 *49:65 0.00230745
6 *49:63 0.00262594
7 *49:55 0.00243015
8 *49:36 0.00143842
9 *49:18 0.00422797
10 *49:12 0.00481144
11 *49:6 0.00129977
12 *1476:B *120:6 0.000771732
13 *1476:B *219:34 0.000271936
14 *49:6 *1475:A 1.08287e-05
15 *49:6 *137:63 0.000940562
16 *49:6 *137:90 0.000439193
17 *49:6 *222:66 4.69418e-05
18 *49:12 *149:71 0.00012656
19 *49:12 *204:83 0.000124431
20 *49:18 *74:34 0.000483955
21 *49:18 *75:14 0.000258647
22 *49:18 *76:16 0
23 *49:18 *114:10 7.84469e-05
24 *49:18 *130:51 0
25 *49:18 *150:16 0.00134249
26 *49:18 *183:70 6.03649e-05
27 *49:18 *201:84 0.00215755
28 *49:18 *208:59 9.40132e-05
29 *49:18 *228:84 8.94552e-05
30 *49:36 *1488:A2 0.000336919
31 *49:36 *60:47 1.21972e-05
32 *49:36 *225:107 6.88253e-05
33 *49:55 *52:24 0.0014672
34 *49:55 *74:26 0.00027375
35 *49:55 *85:22 0
36 *49:55 *102:26 0.00283401
37 *49:55 *131:54 8.95935e-05
38 *49:55 *146:18 7.37814e-06
39 *49:55 *150:16 0.000289409
40 *49:55 *196:66 0.000107011
41 *49:55 *205:53 2.26406e-05
42 *49:63 *146:18 6.69901e-05
43 *49:63 *170:18 0.000435797
44 *49:63 *205:53 0.000153823
45 *49:65 *53:82 0
46 *49:65 *62:20 0.000151405
47 *49:65 *64:16 0.000215205
48 *49:65 *77:24 4.96982e-05
49 *49:65 *99:10 0.000274626
50 *49:65 *100:12 0.000349386
51 *49:65 *135:16 1.34354e-05
52 *49:65 *144:36 6.27555e-05
53 *49:65 *177:24 0.000404729
54 *49:65 *177:28 4.51887e-05
55 *49:65 *178:12 0
56 *49:65 *204:46 0.000471971
57 *49:65 *204:61 0
58 *49:65 *218:10 0
59 *1471:A3 *49:36 0.00100516
60 *1471:C1 *49:36 0.000184735
61 *1475:B *49:6 1.34914e-05
62 *1488:A3 *49:36 8.59854e-05
63 *37:23 *49:18 0
64 *42:42 *49:36 5.3304e-05
65 *44:31 *49:18 0
66 *48:45 *1476:B 0.000280283
*RES
1 *1475:Y *49:6 40.2964 
2 *49:6 *49:12 24.7296 
3 *49:12 *49:18 46.9575 
4 *49:18 *49:36 39.4843 
5 *49:36 *1488:A1 23 
6 *49:12 *49:55 32.1573 
7 *49:55 *49:63 37.1671 
8 *49:63 *49:65 43.4586 
9 *49:65 *1476:B 46.7414 
10 *49:55 *1490:A1 38 
*END

*D_NET *50 0.0205974
*CONN
*I *1478:A I *D sky130_fd_sc_hd__nand3_1
*I *1477:B1 I *D sky130_fd_sc_hd__a21o_1
*I *1476:Y O *D sky130_fd_sc_hd__nand2_1
*CAP
1 *1478:A 0
2 *1477:B1 0.000518837
3 *1476:Y 0
4 *50:41 0.000485782
5 *50:29 0.0029138
6 *50:27 0.00268306
7 *50:12 0.00131339
8 *50:8 0.00224338
9 *50:4 0.00170387
10 *1477:B1 *188:35 8.35772e-06
11 *1477:B1 *196:36 0.000102389
12 *50:8 *219:34 0.00258647
13 *50:12 *1522:B1 0
14 *50:12 *92:10 6.10551e-06
15 *50:12 *133:68 0.00048967
16 *50:12 *134:156 0.000109253
17 *50:12 *188:18 0
18 *50:29 *59:35 0.00254507
19 *50:29 *61:28 8.27951e-05
20 *50:29 *86:10 0
21 *50:29 *134:150 0
22 *50:29 *134:156 0
23 *50:29 *182:12 0
24 *50:29 *182:18 0.000834635
25 *50:29 *213:32 0.000270921
26 *50:29 *214:10 0.000848168
27 *50:29 *229:91 0
28 *50:41 *1478:B 1.7768e-05
29 *50:41 *52:24 3.4377e-06
30 *50:41 *222:68 2.42715e-05
31 out[2] *50:41 0
32 out[3] *50:29 0.00012758
33 out[4] *50:29 2.26497e-05
34 out[5] *50:29 0.00012758
35 *1477:A2 *1477:B1 9.53896e-05
36 *29:12 *50:8 1.59071e-05
37 *43:16 *50:29 0.000397539
38 *45:80 *50:41 1.93186e-05
*RES
1 *1476:Y *50:4 23 
2 *50:4 *50:8 43.2543 
3 *50:8 *50:12 26.4136 
4 *50:12 *1477:B1 30.8093 
5 *50:12 *50:27 18.0036 
6 *50:27 *50:29 72.8625 
7 *50:29 *50:41 32.4429 
8 *50:41 *1478:A 23 
*END

*D_NET *51 0.010943
*CONN
*I *1480:A I *D sky130_fd_sc_hd__and3_1
*I *1477:X O *D sky130_fd_sc_hd__a21o_1
*CAP
1 *1480:A 7.29225e-05
2 *1477:X 0.000218327
3 *51:14 0.00194057
4 *51:12 0.00186765
5 *51:10 0.000218327
6 *1480:A *1400:A 6.17437e-06
7 *1480:A *1480:C 1.32314e-05
8 *51:10 *136:106 0.000351599
9 *51:10 *217:10 0.00017192
10 *51:14 *1480:C 1.62171e-05
11 *51:14 *1495:A 0.000271476
12 *51:14 *1495:B 5.50049e-05
13 *51:14 *54:8 0.000565804
14 *51:14 *100:18 0.00185466
15 *51:14 *100:24 0.000469278
16 *51:14 *131:25 0.000899482
17 *51:14 *133:58 0.000230991
18 *51:14 *133:60 0.00035761
19 *51:14 *135:6 0.00132463
20 *1477:A2 *51:10 3.71251e-05
*RES
1 *1477:X *51:10 43.8207 
2 *51:10 *51:12 15 
3 *51:12 *51:14 55.4107 
4 *51:14 *1480:A 24.4707 
*END

*D_NET *52 0.0261875
*CONN
*I *1480:B I *D sky130_fd_sc_hd__and3_1
*I *1478:Y O *D sky130_fd_sc_hd__nand3_1
*CAP
1 *1480:B 0
2 *1478:Y 0.000130106
3 *52:34 0.000208905
4 *52:24 0.00855611
5 *52:10 0.00847731
6 *52:10 *170:31 0
7 *52:10 *215:18 0
8 *52:10 *222:68 0.000136609
9 *52:24 *53:24 0.000132212
10 *52:24 *70:16 0.000312605
11 *52:24 *81:32 0.00263116
12 *52:24 *82:20 0.000201423
13 *52:24 *85:22 0.000783729
14 *52:24 *104:22 0
15 *52:24 *128:8 0.000246133
16 *52:24 *130:154 0
17 *52:24 *142:92 3.36029e-06
18 *52:24 *143:26 0.00117864
19 *52:24 *149:145 0
20 *52:24 *150:16 3.02903e-05
21 *52:24 *167:34 0.000313027
22 *52:24 *173:33 0.000347598
23 *52:24 *190:34 0.000105005
24 *52:24 *200:53 4.68487e-05
25 *52:24 *222:45 0
26 *52:24 *225:64 0.000183334
27 *52:24 *230:20 0.00010524
28 *52:34 *1480:C 0.000168649
29 *52:34 *93:22 4.96824e-05
30 *52:34 *128:8 1.94418e-05
31 *52:34 *130:97 0.000300824
32 *52:34 *169:45 1.03597e-05
33 *52:34 *230:20 3.83059e-05
34 *49:55 *52:24 0.0014672
35 *50:41 *52:24 3.4377e-06
*RES
1 *1478:Y *52:10 48.4339 
2 *52:10 *52:24 46.1293 
3 *52:24 *52:34 35.2936 
4 *52:34 *1480:B 23 
*END

*D_NET *53 0.042301
*CONN
*I *1516:A1 I *D sky130_fd_sc_hd__a31o_4
*I *1549:A1 I *D sky130_fd_sc_hd__a221o_1
*I *1540:A2 I *D sky130_fd_sc_hd__a31o_1
*I *1530:C_N I *D sky130_fd_sc_hd__or3b_1
*I *1552:B I *D sky130_fd_sc_hd__and3_1
*I *1491:B I *D sky130_fd_sc_hd__and2b_1
*I *1480:C I *D sky130_fd_sc_hd__and3_1
*I *1479:X O *D sky130_fd_sc_hd__and3_2
*CAP
1 *1516:A1 0
2 *1549:A1 0.000507901
3 *1540:A2 0.000134604
4 *1530:C_N 0
5 *1552:B 0
6 *1491:B 0.000209746
7 *1480:C 0.000261293
8 *1479:X 0.00104462
9 *53:126 0.000403857
10 *53:107 0.000990896
11 *53:91 0.000638487
12 *53:82 0.000528587
13 *53:78 0.00125171
14 *53:76 0.00143506
15 *53:70 0.00314678
16 *53:38 0.000739789
17 *53:32 0.00219971
18 *53:30 0.00152025
19 *53:24 0.00315819
20 *53:8 0.00171708
21 *53:6 0.00104462
22 *1480:C *130:97 6.08242e-05
23 *1480:C *230:20 0.000357144
24 *1491:B *57:6 2.31591e-05
25 *1491:B *63:33 0.000497278
26 *1491:B *64:10 7.31551e-05
27 *1491:B *91:28 0.000347205
28 *1540:A2 *1473:A 4.64239e-05
29 *1540:A2 *102:26 1.13812e-05
30 *1540:A2 *204:61 0.00011082
31 *1540:A2 *218:10 9.8788e-06
32 *1549:A1 *1549:A2 7.78521e-05
33 *1549:A1 *186:63 0.000157865
34 *1549:A1 *215:6 0.000144501
35 *1549:A1 *230:6 5.3304e-05
36 *53:6 *116:22 5.82853e-05
37 *53:6 *134:33 0.000865553
38 *53:6 *210:18 9.41704e-05
39 *53:24 *81:32 0.000756023
40 *53:24 *85:22 0
41 *53:24 *128:8 0.000379916
42 *53:24 *133:18 0.000520913
43 *53:24 *133:20 0.000144891
44 *53:24 *133:137 0.000164502
45 *53:24 *139:10 0.000283269
46 *53:24 *167:34 0.000996192
47 *53:24 *167:64 0.00134373
48 *53:24 *230:10 0.000670541
49 *53:24 *230:20 0.000134658
50 *53:24 *230:41 1.03597e-05
51 *53:30 *71:10 1.06693e-05
52 *53:30 *76:16 0.000159337
53 *53:30 *76:26 8.52094e-06
54 *53:30 *82:20 0.000146226
55 *53:30 *122:20 0.00057694
56 *53:30 *123:12 0.000371862
57 *53:30 *133:40 9.00882e-05
58 *53:30 *183:176 0.000434766
59 *53:30 *193:8 0.000742382
60 *53:30 *193:16 0.000111106
61 *53:30 *206:56 0.000183253
62 *53:30 *225:76 0.00108513
63 *53:30 *227:21 0.000164251
64 *53:30 *227:39 8.14696e-05
65 *53:38 *63:33 0.000313524
66 *53:38 *130:97 1.55006e-05
67 *53:38 *230:20 5.13998e-05
68 *53:70 *63:33 8.52481e-05
69 *53:70 *64:10 1.73274e-05
70 *53:70 *91:28 0.000447359
71 *53:70 *119:10 8.36198e-05
72 *53:70 *148:60 4.41307e-05
73 *53:70 *196:24 8.36198e-05
74 *53:70 *211:14 0.000687456
75 *53:70 *226:44 0.00018118
76 *53:76 *1558:A1 8.806e-05
77 *53:76 *114:8 0.000137368
78 *53:76 *137:16 9.3027e-05
79 *53:76 *211:41 0.000651924
80 *53:78 *204:61 0.000132861
81 *53:78 *218:10 3.09001e-05
82 *53:82 *204:61 0.00091257
83 *53:82 *218:10 9.32509e-05
84 *53:91 *196:24 0.000390685
85 *53:91 *226:48 4.05745e-05
86 *53:107 *133:137 0.000207512
87 *53:107 *230:10 0.00021432
88 *53:126 *1418:A 0.000454068
89 *53:126 *87:14 0.000509087
90 *53:126 *133:137 0.00022274
91 *53:126 *162:8 0.000141352
92 *53:126 *225:84 8.5886e-05
93 *53:126 *230:10 3.46013e-05
94 *1480:A *1480:C 1.32314e-05
95 *35:18 *53:91 0.00128404
96 *40:8 *53:6 5.3304e-05
97 *40:14 *53:24 0.000191591
98 *40:20 *53:24 0.000115688
99 *41:10 *53:24 0.000141646
100 *46:10 *1540:A2 0.000240272
101 *49:65 *53:82 0
102 *51:14 *1480:C 1.62171e-05
103 *52:24 *53:24 0.000132212
104 *52:34 *1480:C 0.000168649
*RES
1 *1479:X *53:6 42.2021 
2 *53:6 *53:8 15 
3 *53:8 *53:24 47.5273 
4 *53:24 *53:30 40.5275 
5 *53:30 *53:32 15 
6 *53:32 *53:38 19.3293 
7 *53:38 *1480:C 43.7793 
8 *53:38 *1491:B 45.0014 
9 *53:32 *53:70 42.55 
10 *53:70 *53:76 46.3436 
11 *53:76 *53:78 1.90571 
12 *53:78 *53:82 27.47 
13 *53:82 *1552:B 23 
14 *53:78 *53:91 30.8671 
15 *53:91 *1530:C_N 23 
16 *53:76 *1540:A2 42.0186 
17 *53:8 *53:107 2.96214 
18 *53:107 *1549:A1 47.1971 
19 *53:107 *53:126 27.2007 
20 *53:126 *1516:A1 23 
*END

*D_NET *54 0.00272783
*CONN
*I *1481:C1 I *D sky130_fd_sc_hd__a211o_1
*I *1480:X O *D sky130_fd_sc_hd__and3_1
*CAP
1 *1481:C1 0.000496237
2 *1480:X 0.000357003
3 *54:8 0.00085324
4 *1481:C1 *1510:C 0
5 *1481:C1 *96:10 1.55285e-05
6 *1481:C1 *101:8 0
7 *1481:C1 *181:123 8.77305e-05
8 *1481:C1 *210:54 0.000352283
9 *51:14 *54:8 0.000565804
*RES
1 *1480:X *54:8 44.3386 
2 *54:8 *1481:C1 47.0107 
*END

*D_NET *55 0.0202179
*CONN
*I *1483:B I *D sky130_fd_sc_hd__xnor2_2
*I *1507:A2 I *D sky130_fd_sc_hd__o21a_1
*I *1482:X O *D sky130_fd_sc_hd__o31a_4
*CAP
1 *1483:B 0
2 *1507:A2 0
3 *1482:X 0.000520189
4 *55:31 0.00209093
5 *55:29 0.00209093
6 *55:20 0.00178991
7 *55:14 0.00234694
8 *55:6 0.00107723
9 *55:6 *108:14 0.00165921
10 *55:6 *209:54 0.00165564
11 *55:14 *1539:A1 4.05745e-05
12 *55:14 *1539:B1_N 0.000261956
13 *55:14 *95:18 0.000137651
14 *55:14 *103:18 2.49251e-05
15 *55:14 *108:14 6.28966e-05
16 *55:14 *153:10 7.68979e-05
17 *55:14 *164:38 0.000189095
18 *55:14 *193:56 0.000136738
19 *55:14 *211:56 7.89973e-05
20 *55:20 *103:18 1.21972e-05
21 *55:20 *164:38 0.000582129
22 *55:20 *181:107 0
23 *55:20 *193:16 0.000163343
24 *55:31 *1592:A 0
25 *55:31 *56:20 0
26 *55:31 *56:52 0
27 *55:31 *84:26 0.00061367
28 *55:31 *131:148 0
29 *55:31 *142:28 0.000798318
30 *55:31 *148:133 3.21591e-05
31 *55:31 *179:20 0.000427713
32 *55:31 *179:40 0.00120652
33 *55:31 *180:19 0
34 *55:31 *208:28 0.000551854
35 *55:31 *209:36 0
36 *55:31 *210:28 0
37 *55:31 *210:32 0
38 *55:31 *210:40 0.000679015
39 *31:14 *55:31 0.000795745
40 *38:14 *55:31 0
41 *39:20 *55:20 0.000114566
42 *41:38 *55:31 0
*RES
1 *1482:X *55:6 41.7257 
2 *55:6 *55:14 41.3514 
3 *55:14 *55:20 42.4257 
4 *55:20 *1507:A2 38 
5 *55:14 *55:29 15 
6 *55:29 *55:31 48.3886 
7 *55:31 *1483:B 38 
*END

*D_NET *56 0.0286276
*CONN
*I *1485:B I *D sky130_fd_sc_hd__nor2_1
*I *1484:B I *D sky130_fd_sc_hd__and2_4
*I *1483:Y O *D sky130_fd_sc_hd__xnor2_2
*CAP
1 *1485:B 0
2 *1484:B 0.000192928
3 *1483:Y 0.0005874
4 *56:73 0.00188133
5 *56:71 0.00422927
6 *56:58 0.00172723
7 *56:56 0.0036813
8 *56:52 0.00567372
9 *56:20 0.00176618
10 *1484:B *57:6 3.72984e-05
11 *56:20 *71:10 0.000320806
12 *56:20 *206:91 1.83327e-05
13 *56:52 *71:10 0.000976191
14 *56:52 *84:26 0
15 *56:52 *131:70 6.5704e-05
16 *56:52 *142:28 0
17 *56:52 *179:20 3.95587e-05
18 *56:52 *209:28 0.000131538
19 *56:56 *1513:A1 4.67488e-05
20 *56:56 *1513:A3 3.66555e-05
21 *56:56 *84:30 0.000815706
22 *56:56 *181:70 4.94105e-05
23 *56:58 *92:16 0.000493879
24 *56:58 *131:101 0
25 *56:58 *157:12 0.000253061
26 *56:58 *191:10 0.00228078
27 *56:58 *206:16 0.00110506
28 *56:58 *206:83 0.000441317
29 *56:71 *84:30 9.14874e-05
30 *56:71 *163:33 0.000383374
31 *56:71 *181:70 0.000205249
32 *56:73 *1485:A 0.000429862
33 *56:73 *1515:A2 0.000106459
34 *56:73 *58:12 9.00422e-05
35 *56:73 *94:16 0.000100069
36 *56:73 *163:33 0.000175952
37 *56:73 *228:74 0.000144494
38 *1573:A *56:58 4.92359e-05
39 *1575:A *56:58 0
40 *5:17 *56:58 0
41 *31:28 *56:58 0
42 *39:20 *56:58 0
43 *55:31 *56:20 0
44 *55:31 *56:52 0
*RES
1 *1483:Y *56:20 47.9284 
2 *56:20 *56:52 41.8146 
3 *56:52 *56:56 41.825 
4 *56:56 *56:58 45.9236 
5 *56:58 *1484:B 41.48 
6 *56:52 *56:71 29.3418 
7 *56:71 *56:73 30.3982 
8 *56:73 *1485:B 23 
*END

*D_NET *57 0.0207591
*CONN
*I *1486:A I *D sky130_fd_sc_hd__or2_4
*I *1509:A1 I *D sky130_fd_sc_hd__o21ai_2
*I *1510:A I *D sky130_fd_sc_hd__or3_4
*I *1484:X O *D sky130_fd_sc_hd__and2_4
*CAP
1 *1486:A 0
2 *1509:A1 0
3 *1510:A 3.41816e-05
4 *1484:X 0.00170125
5 *57:48 0.000813593
6 *57:44 0.00175579
7 *57:35 0.000509079
8 *57:27 0.0014916
9 *57:23 0.00149903
10 *57:10 0.00174168
11 *57:6 0.00195003
12 *1510:A *101:8 4.43614e-05
13 *1510:A *227:21 8.9458e-05
14 *57:6 *63:33 3.60045e-05
15 *57:6 *64:10 0.000729969
16 *57:10 *1510:C 9.07623e-05
17 *57:10 *63:33 3.03959e-05
18 *57:10 *101:8 4.08641e-05
19 *57:10 *227:21 0.000485673
20 *57:23 *1510:B 0.000938627
21 *57:23 *80:14 5.50049e-05
22 *57:23 *225:24 0.000178517
23 *57:27 *107:10 2.60152e-05
24 *57:27 *225:36 5.94125e-05
25 *57:35 *63:44 0.000337681
26 *57:35 *80:27 0.000451068
27 *57:35 *181:131 8.57485e-05
28 *57:35 *225:36 3.47781e-05
29 *57:44 *80:14 0.00219335
30 *57:44 *225:28 5.3304e-05
31 *57:44 *225:44 5.3304e-05
32 *57:48 *73:23 0.000481546
33 *57:48 *74:26 0.000102245
34 *57:48 *136:106 0.000332927
35 *1484:B *57:6 3.72984e-05
36 *1491:B *57:6 2.31591e-05
37 *45:33 *57:48 0.000236678
38 *47:20 *57:44 0.000829527
39 *47:22 *57:44 0.000366023
40 *47:39 *57:48 0.000839172
*RES
1 *1484:X *57:6 44.5843 
2 *57:6 *57:10 21.8357 
3 *57:10 *1510:A 39.2014 
4 *57:10 *57:23 36.5843 
5 *57:23 *57:27 15.8493 
6 *57:27 *57:35 27.5321 
7 *57:35 *1509:A1 23 
8 *57:27 *57:44 44.2071 
9 *57:44 *57:48 37.33 
10 *57:48 *1486:A 38 
*END

*D_NET *58 0.00755952
*CONN
*I *1486:B I *D sky130_fd_sc_hd__or2_4
*I *1485:Y O *D sky130_fd_sc_hd__nor2_1
*CAP
1 *1486:B 0.000291324
2 *1485:Y 0.000321459
3 *58:16 0.00111143
4 *58:12 0.00114157
5 *1486:B *1586:A 0.000358915
6 *58:12 *1515:A2 0.000199876
7 *58:16 *183:131 0
8 *58:16 *188:16 0.000302358
9 *58:16 *188:61 0
10 *58:16 *227:108 0.00143365
11 *58:16 *228:64 0.00230889
12 *56:73 *58:12 9.00422e-05
*RES
1 *1485:Y *58:12 43.075 
2 *58:12 *58:16 45.7814 
3 *58:16 *1486:B 28.8621 
*END

*D_NET *59 0.0126617
*CONN
*I *1489:A I *D sky130_fd_sc_hd__nand2_1
*I *1490:B1 I *D sky130_fd_sc_hd__a311oi_4
*I *1486:X O *D sky130_fd_sc_hd__or2_4
*CAP
1 *1489:A 0.00016326
2 *1490:B1 0.000352428
3 *1486:X 0.000267871
4 *59:35 0.000840221
5 *59:31 0.00165421
6 *59:8 0.00159755
7 *1489:A *1475:A 1.11037e-05
8 *1489:A *62:8 0.00022823
9 *1490:B1 *1410:A3 0.000245626
10 *1490:B1 *154:10 5.50049e-05
11 *59:8 *151:22 0.000236732
12 *59:8 *226:69 0.000169674
13 *59:31 *136:96 0.000347205
14 *59:31 *151:22 7.65883e-06
15 *59:31 *154:10 0.000160191
16 *59:31 *227:104 0.000393274
17 *59:35 *214:10 0.00254507
18 *45:29 *59:8 2.55642e-05
19 *45:29 *59:31 0.000182585
20 *45:33 *59:8 0.000633147
21 *50:29 *59:35 0.00254507
*RES
1 *1486:X *59:8 46.9486 
2 *59:8 *1490:B1 43.8829 
3 *59:8 *59:31 48.1664 
4 *59:31 *59:35 48.5986 
5 *59:35 *1489:A 26.5007 
*END

*D_NET *60 0.022845
*CONN
*I *1488:B1 I *D sky130_fd_sc_hd__a31o_1
*I *1490:C1 I *D sky130_fd_sc_hd__a311oi_4
*I *1487:Y O *D sky130_fd_sc_hd__inv_2
*CAP
1 *1488:B1 0
2 *1490:C1 0
3 *1487:Y 0
4 *60:47 0.000362749
5 *60:41 0.00173018
6 *60:35 0.00219305
7 *60:26 0.000101559
8 *60:16 0.00329057
9 *60:6 0.00401462
10 *60:16 *1421:B 0
11 *60:16 *78:22 0.00173814
12 *60:16 *88:24 0.0012207
13 *60:16 *130:165 0
14 *60:16 *173:41 0.000456056
15 *60:16 *185:31 0.000104065
16 *60:16 *196:95 0.000226053
17 *60:16 *204:38 0.000104065
18 *60:16 *209:102 0.000195356
19 *60:26 *141:26 9.58483e-06
20 *60:26 *149:104 1.01436e-05
21 *60:26 *177:28 5.76445e-05
22 *60:26 *204:46 0.000127035
23 *60:35 *88:12 9.86551e-06
24 *60:35 *88:24 0.000102921
25 *60:35 *130:165 0
26 *60:35 *135:55 0
27 *60:35 *149:61 0
28 *60:35 *149:63 0
29 *60:41 *1518:A2 9.53734e-05
30 *60:41 *78:22 0.000119379
31 *60:41 *129:46 0.000309995
32 *60:41 *137:165 1.03955e-05
33 *60:41 *142:183 0.00171395
34 *60:41 *225:103 0.000209817
35 *60:47 *1488:A2 2.18506e-05
36 *60:47 *61:8 0.000880266
37 *60:47 *196:122 9.41704e-05
38 *1488:A3 *60:47 0.00109281
39 *35:71 *60:16 0.000217479
40 *35:82 *60:16 0.00109938
41 *35:82 *60:35 0.000536387
42 *48:28 *60:16 0.000377149
43 *49:36 *60:47 1.21972e-05
*RES
1 *1487:Y *60:6 38 
2 *60:6 *60:16 43.6068 
3 *60:16 *60:26 32.8286 
4 *60:26 *1490:C1 23 
5 *60:6 *60:35 30.2871 
6 *60:35 *60:41 39.5257 
7 *60:41 *60:47 28.9821 
8 *60:47 *1488:B1 23 
*END

*D_NET *61 0.0177253
*CONN
*I *1489:B I *D sky130_fd_sc_hd__nand2_1
*I *1488:X O *D sky130_fd_sc_hd__a31o_1
*CAP
1 *1489:B 0
2 *1488:X 0.000582972
3 *61:28 0.000748476
4 *61:24 0.00284837
5 *61:18 0.0029863
6 *61:8 0.00146938
7 *61:18 *1547:A 5.35844e-05
8 *61:18 *115:8 0.00018221
9 *61:18 *128:27 0.000362333
10 *61:18 *129:8 4.05745e-05
11 *61:18 *129:36 0
12 *61:18 *129:46 6.36937e-05
13 *61:18 *183:78 5.5792e-05
14 *61:18 *186:63 4.50994e-05
15 *61:18 *196:122 8.25833e-05
16 *61:18 *200:57 0.000362983
17 *61:18 *210:121 0.000457956
18 *61:24 *1385:A 5.56356e-05
19 *61:24 *1454:B 0.000520606
20 *61:24 *115:8 0.000570368
21 *61:24 *115:12 0.00112874
22 *61:24 *129:8 0.000821282
23 *61:24 *192:46 2.1819e-05
24 *61:24 *198:10 1.61361e-05
25 *61:24 *209:85 6.50258e-05
26 *61:24 *209:102 0.000572752
27 *61:24 *224:31 0.0009522
28 *61:28 *182:12 0.00167252
29 *61:28 *213:32 0
30 *61:28 *214:10 0
31 out[2] *61:28 1.27424e-05
32 *33:45 *61:18 1.0092e-05
33 *50:29 *61:28 8.27951e-05
34 *60:47 *61:8 0.000880266
*RES
1 *1488:X *61:8 47.6736 
2 *61:8 *61:18 36.3979 
3 *61:18 *61:24 43.5414 
4 *61:24 *61:28 36.9779 
5 *61:28 *1489:B 38 
*END

*D_NET *62 0.0141625
*CONN
*I *1505:A1 I *D sky130_fd_sc_hd__a21o_1
*I *1489:Y O *D sky130_fd_sc_hd__nand2_1
*CAP
1 *1505:A1 0
2 *1489:Y 0.00034627
3 *62:20 0.00224886
4 *62:10 0.00329116
5 *62:8 0.00138857
6 *62:10 *87:10 0.000973274
7 *62:10 *133:88 0.00186854
8 *62:10 *213:32 0.000539321
9 *62:20 *77:24 2.12441e-05
10 *62:20 *78:22 8.88182e-05
11 *62:20 *99:10 7.28313e-05
12 *62:20 *134:107 0
13 *62:20 *205:78 0.000534763
14 *62:20 *229:91 0
15 out[5] *62:20 2.55712e-05
16 *1489:A *62:8 0.00022823
17 *43:18 *62:10 0.00238368
18 *49:65 *62:20 0.000151405
*RES
1 *1489:Y *62:8 42.4329 
2 *62:8 *62:10 50.3254 
3 *62:10 *62:20 37.9463 
4 *62:20 *1505:A1 23 
*END

*D_NET *63 0.018407
*CONN
*I *1509:A2 I *D sky130_fd_sc_hd__o21ai_2
*I *1491:A_N I *D sky130_fd_sc_hd__and2b_1
*I *1510:C I *D sky130_fd_sc_hd__or3_4
*I *1490:Y O *D sky130_fd_sc_hd__a311oi_4
*CAP
1 *1509:A2 0
2 *1491:A_N 0
3 *1510:C 0.000267742
4 *1490:Y 0.000552395
5 *63:44 0.000927036
6 *63:33 0.00068335
7 *63:18 0.000951092
8 *63:16 0.00107365
9 *63:10 0.00293401
10 *63:6 0.00148572
11 *1510:C *1531:A 0.000179465
12 *1510:C *96:10 0
13 *1510:C *97:18 1.09547e-05
14 *1510:C *101:8 0.000162422
15 *1510:C *133:40 3.70094e-05
16 *1510:C *225:24 6.16439e-05
17 *63:6 *1410:A3 0.000501803
18 *63:6 *99:6 0.00144534
19 *63:6 *149:108 9.67842e-05
20 *63:6 *152:20 0.00115769
21 *63:10 *107:10 0.000181226
22 *63:10 *140:16 2.13808e-05
23 *63:10 *142:123 0
24 *63:10 *142:131 0
25 *63:10 *148:60 0.00115335
26 *63:10 *171:20 0.000193388
27 *63:10 *198:32 0.000349672
28 *63:10 *211:24 6.12496e-06
29 *63:16 *1526:B1 0.00018536
30 *63:16 *107:10 2.50227e-05
31 *63:16 *131:33 0.000514777
32 *63:16 *133:44 0.000403011
33 *63:16 *133:54 1.10658e-05
34 *63:16 *181:115 2.18506e-05
35 *63:16 *201:49 0.000100326
36 *63:33 *91:28 0.000209225
37 *63:33 *133:40 0.000212546
38 *63:33 *227:21 0
39 *63:44 *104:26 0
40 *63:44 *107:10 0
41 *63:44 *142:131 8.02832e-05
42 *63:44 *158:45 0.000302789
43 *63:44 *181:131 8.36198e-05
44 *63:44 *225:36 3.83778e-05
45 *1481:C1 *1510:C 0
46 *1491:B *63:33 0.000497278
47 *34:29 *63:10 0.000394555
48 *53:38 *63:33 0.000313524
49 *53:70 *63:33 8.52481e-05
50 *57:6 *63:33 3.60045e-05
51 *57:10 *1510:C 9.07623e-05
52 *57:10 *63:33 3.03959e-05
53 *57:35 *63:44 0.000337681
*RES
1 *1490:Y *63:6 41.7257 
2 *63:6 *63:10 38.9146 
3 *63:10 *63:16 35.8282 
4 *63:16 *63:18 15 
5 *63:18 *1510:C 44.4836 
6 *63:18 *63:33 30.0179 
7 *63:33 *1491:A_N 23 
8 *63:10 *63:44 34.8546 
9 *63:44 *1509:A2 23 
*END

*D_NET *64 0.0105906
*CONN
*I *1505:A2 I *D sky130_fd_sc_hd__a21o_1
*I *1491:X O *D sky130_fd_sc_hd__and2b_1
*CAP
1 *1505:A2 0
2 *1491:X 0
3 *64:16 0.000266035
4 *64:10 0.00265038
5 *64:4 0.00238434
6 *64:10 *91:28 0.00266762
7 *64:10 *99:16 5.50049e-05
8 *64:10 *148:60 4.3925e-05
9 *64:10 *196:24 0.000919643
10 *64:10 *226:44 3.91082e-05
11 *64:16 *99:10 0.000461366
12 *64:16 *100:12 1.01436e-05
13 *64:16 *178:12 1.22906e-05
14 *1491:B *64:10 7.31551e-05
15 *35:18 *64:10 4.5051e-05
16 *49:65 *64:16 0.000215205
17 *53:70 *64:10 1.73274e-05
18 *57:6 *64:10 0.000729969
*RES
1 *1491:X *64:4 23 
2 *64:4 *64:10 47.0007 
3 *64:10 *64:16 36.8357 
4 *64:16 *1505:A2 23 
*END

*D_NET *65 0.00926689
*CONN
*I *1493:C I *D sky130_fd_sc_hd__nand3_2
*I *1494:B1 I *D sky130_fd_sc_hd__a21o_1
*I *1492:Y O *D sky130_fd_sc_hd__a21oi_1
*CAP
1 *1493:C 0.000322414
2 *1494:B1 0
3 *1492:Y 0.000425306
4 *65:16 0.00237809
5 *65:12 0.0027005
6 *65:10 0.000425306
7 *1493:C *66:8 3.91683e-06
8 *1493:C *149:169 7.25499e-05
9 *65:10 *1581:A 0
10 *65:10 *135:59 2.64616e-05
11 *65:10 *142:170 0
12 *65:10 *142:181 0
13 *65:10 *182:6 5.50049e-05
14 *65:10 *222:68 0.000218962
15 *65:16 *1411:A1 9.84794e-05
16 *65:16 *1411:B1 3.34129e-05
17 *65:16 *66:8 3.89661e-05
18 *65:16 *78:22 0.000173116
19 *65:16 *137:148 0.000251675
20 *65:16 *149:48 3.49854e-05
21 *65:16 *149:61 0.00181271
22 *65:16 *149:169 0.000195029
*RES
1 *1492:Y *65:10 45.8093 
2 *65:10 *65:12 15 
3 *65:12 *65:16 37.2029 
4 *65:16 *1494:B1 23 
5 *65:12 *1493:C 27.8057 
*END

*D_NET *66 0.0312553
*CONN
*I *1511:B1 I *D sky130_fd_sc_hd__o21ai_1
*I *1495:A I *D sky130_fd_sc_hd__nand2_2
*I *1493:Y O *D sky130_fd_sc_hd__nand3_2
*CAP
1 *1511:B1 0
2 *1495:A 4.93766e-05
3 *1493:Y 0.00070907
4 *66:36 0.00190942
5 *66:34 0.00186005
6 *66:32 0.00265545
7 *66:14 0.00333718
8 *66:12 0.00141325
9 *66:8 0.00144058
10 *1495:A *100:24 0.000269775
11 *66:8 *149:169 0.00016879
12 *66:12 *134:76 0
13 *66:12 *142:170 0
14 *66:12 *142:181 0
15 *66:12 *150:27 0.00119489
16 *66:14 *87:14 0.00253563
17 *66:32 *1511:A1 5.3304e-05
18 *66:32 *67:24 0.00267525
19 *66:32 *84:26 8.1892e-05
20 *66:32 *87:14 0.000178391
21 *66:32 *153:10 0.000149785
22 *66:32 *155:20 2.53887e-05
23 *66:32 *169:20 8.78319e-07
24 *66:32 *199:63 2.05503e-05
25 *66:32 *200:53 0.00106317
26 *66:32 *210:22 0.000103966
27 *66:36 *69:14 0.00216922
28 *66:36 *95:30 0
29 *66:36 *155:55 0.000205235
30 *66:36 *164:54 0
31 *66:36 *173:8 0.00178944
32 *66:36 *173:33 1.38978e-05
33 *66:36 *190:14 0.000212121
34 *66:36 *200:24 0.000296026
35 *66:36 *200:53 0.00115493
36 *1493:C *66:8 3.91683e-06
37 *32:16 *66:36 0.00024576
38 *32:26 *66:36 3.7524e-05
39 *33:26 *66:36 0.00036298
40 *33:45 *66:32 0.000113451
41 *38:31 *66:32 2.26497e-05
42 *45:21 *66:14 0.00242164
43 *51:14 *1495:A 0.000271476
44 *65:16 *66:8 3.89661e-05
*RES
1 *1493:Y *66:8 47.6736 
2 *66:8 *66:12 31.3436 
3 *66:12 *66:14 28.2543 
4 *66:14 *66:32 49.3425 
5 *66:32 *66:34 8 
6 *66:34 *66:36 53.1425 
7 *66:36 *1495:A 41.0036 
8 *66:14 *1511:B1 23 
*END

*D_NET *67 0.0218243
*CONN
*I *1495:B I *D sky130_fd_sc_hd__nand2_2
*I *1494:X O *D sky130_fd_sc_hd__a21o_1
*CAP
1 *1495:B 1.9139e-05
2 *1494:X 0.000541461
3 *67:24 0.00566488
4 *67:12 0.0061872
5 *1495:B *100:24 5.3304e-05
6 *67:12 *1518:A2 2.76611e-06
7 *67:12 *78:22 6.39064e-05
8 *67:12 *133:158 1.14452e-05
9 *67:12 *137:131 4.41789e-05
10 *67:12 *148:10 3.95971e-05
11 *67:12 *199:63 2.26497e-05
12 *67:24 *68:8 0.000679032
13 *67:24 *98:10 0.000163326
14 *67:24 *106:24 0.00220485
15 *67:24 *128:27 0.000105443
16 *67:24 *153:10 0.000130443
17 *67:24 *155:20 0
18 *67:24 *155:55 0.000226523
19 *67:24 *169:45 0
20 *67:24 *173:8 0
21 *67:24 *173:33 0.00166601
22 *67:24 *180:27 0.00011584
23 *67:24 *195:20 0.000127194
24 *67:24 *200:53 0.00029609
25 *67:24 *200:57 0.000127537
26 *67:24 *211:14 0.000157793
27 *30:27 *67:24 0.000110915
28 *33:45 *67:24 0.000332467
29 *51:14 *1495:B 5.50049e-05
30 *66:32 *67:24 0.00267525
*RES
1 *1494:X *67:12 49.2198 
2 *67:12 *67:24 45.4446 
3 *67:24 *1495:B 38.6214 
*END

*D_NET *68 0.0268567
*CONN
*I *1511:A1 I *D sky130_fd_sc_hd__o21ai_1
*I *1498:A I *D sky130_fd_sc_hd__nand2_1
*I *1497:A I *D sky130_fd_sc_hd__or2_1
*I *1495:Y O *D sky130_fd_sc_hd__nand2_2
*CAP
1 *1511:A1 0.000440979
2 *1498:A 0
3 *1497:A 0.000151655
4 *1495:Y 0
5 *68:40 0.00137911
6 *68:31 0.000482854
7 *68:16 0.00180447
8 *68:12 0.00237168
9 *68:8 0.00262806
10 *68:6 0.00236447
11 *1497:A *89:10 0.000215252
12 *1497:A *161:10 0.00021739
13 *1511:A1 *87:14 0.00032897
14 *68:8 *98:10 0.00269172
15 *68:8 *145:24 7.61962e-05
16 *68:8 *153:10 1.31913e-05
17 *68:8 *173:8 0
18 *68:8 *174:22 2.26406e-05
19 *68:8 *174:24 0.000738702
20 *68:8 *174:47 7.45678e-05
21 *68:8 *195:20 0.000764631
22 *68:8 *199:10 0
23 *68:8 *211:14 0.000343842
24 *68:12 *1451:B 0.000376513
25 *68:16 *1451:B 0.00035183
26 *68:16 *131:74 0.00110785
27 *68:16 *131:148 0.000353638
28 *68:16 *204:34 1.71761e-05
29 *68:31 *89:10 0.00118623
30 *68:31 *104:22 0.000141925
31 *68:31 *161:10 0.00117928
32 *68:40 *69:14 7.74299e-05
33 *68:40 *69:46 0.000766099
34 *68:40 *210:10 0.000380541
35 *68:40 *210:18 0.000115564
36 *31:20 *1497:A 3.31122e-05
37 *32:39 *68:40 0.000497519
38 *32:52 *68:40 0.000149974
39 *33:26 *68:8 0.000454968
40 *33:45 *68:8 0.00182432
41 *66:32 *1511:A1 5.3304e-05
42 *67:24 *68:8 0.000679032
*RES
1 *1495:Y *68:6 38 
2 *68:6 *68:8 65.9957 
3 *68:8 *68:12 19.4329 
4 *68:12 *68:16 35.6314 
5 *68:16 *1497:A 42.06 
6 *68:16 *68:31 31.3436 
7 *68:31 *1498:A 23 
8 *68:12 *68:40 40.1471 
9 *68:40 *1511:A1 45.7679 
*END

*D_NET *69 0.0230912
*CONN
*I *1511:A2 I *D sky130_fd_sc_hd__o21ai_1
*I *1498:B I *D sky130_fd_sc_hd__nand2_1
*I *1497:B I *D sky130_fd_sc_hd__or2_1
*I *1496:X O *D sky130_fd_sc_hd__a21o_1
*CAP
1 *1511:A2 0
2 *1498:B 0
3 *1497:B 0.000118574
4 *1496:X 0.000322241
5 *69:46 0.00153002
6 *69:35 0.000570111
7 *69:20 0.000688685
8 *69:18 0.0007424
9 *69:14 0.00385394
10 *69:8 0.00190375
11 *1497:B *144:58 0.000379734
12 *1497:B *201:27 0.000377503
13 *69:8 *195:30 0.000350485
14 *69:8 *195:63 5.3304e-05
15 *69:14 *155:55 0.000410002
16 *69:14 *156:22 1.30556e-05
17 *69:14 *156:37 0.000136359
18 *69:14 *181:8 0.000441517
19 *69:14 *181:70 0.000238185
20 *69:14 *195:16 3.41301e-05
21 *69:14 *209:50 0.000396055
22 *69:14 *222:85 0.000104255
23 *69:18 *141:66 0.00186384
24 *69:18 *183:34 0.000994329
25 *69:35 *104:12 0.000255904
26 *69:35 *133:12 9.84851e-05
27 *69:35 *144:58 2.77955e-05
28 *69:35 *159:10 0
29 *69:35 *161:10 1.34354e-05
30 *69:35 *164:10 0.000259963
31 *69:35 *201:23 0.000204794
32 *69:35 *201:27 0.000422378
33 *69:35 *206:91 9.84851e-05
34 *69:46 *87:14 0.000815143
35 *69:46 *112:10 5.90738e-05
36 *69:46 *130:12 0.000403703
37 *69:46 *222:85 0.000195422
38 *69:46 *230:41 2.11066e-05
39 *30:33 *69:14 0.000644696
40 *32:16 *69:14 0.000163488
41 *32:39 *69:14 7.74743e-05
42 *33:26 *69:14 0.000794678
43 *66:36 *69:14 0.00216922
44 *68:40 *69:14 7.74299e-05
45 *68:40 *69:46 0.000766099
*RES
1 *1496:X *69:8 42.4329 
2 *69:8 *69:14 45.4057 
3 *69:14 *69:18 36.5843 
4 *69:18 *69:20 15 
5 *69:20 *1497:B 43.075 
6 *69:20 *69:35 30.3286 
7 *69:35 *1498:B 23 
8 *69:14 *69:46 46.175 
9 *69:46 *1511:A2 23 
*END

*D_NET *70 0.00966725
*CONN
*I *1504:A2 I *D sky130_fd_sc_hd__a31o_1
*I *1497:X O *D sky130_fd_sc_hd__or2_1
*CAP
1 *1504:A2 4.19836e-05
2 *1497:X 0
3 *70:16 0.00122831
4 *70:12 0.0022007
5 *70:6 0.00101437
6 *1504:A2 *1504:A3 4.83971e-05
7 *1504:A2 *77:10 2.02872e-05
8 *1504:A2 *130:89 1.24376e-05
9 *70:12 *89:10 0.000137754
10 *70:12 *104:22 0.000176479
11 *70:12 *157:14 0.0001262
12 *70:12 *161:10 0.0010528
13 *70:12 *164:23 0.000449755
14 *70:16 *76:26 0.000196861
15 *70:16 *122:20 0.00103498
16 *70:16 *138:16 0.000107508
17 *70:16 *139:10 1.37246e-05
18 *70:16 *225:64 0.0011909
19 *40:20 *70:16 0.000301201
20 *52:24 *70:16 0.000312605
*RES
1 *1497:X *70:6 38 
2 *70:6 *70:12 36.0457 
3 *70:12 *70:16 47.5421 
4 *70:16 *1504:A2 39.1186 
*END

*D_NET *71 0.015064
*CONN
*I *1504:A3 I *D sky130_fd_sc_hd__a31o_1
*I *1498:Y O *D sky130_fd_sc_hd__nand2_1
*CAP
1 *1504:A3 0.000374795
2 *1498:Y 0.00079519
3 *71:10 0.00251888
4 *71:8 0.00293928
5 *1504:A3 *77:10 9.87385e-06
6 *1504:A3 *130:89 4.16015e-05
7 *1504:A3 *206:62 0.000175903
8 *71:8 *133:12 0.000180224
9 *71:8 *206:91 0.000240281
10 *71:10 *97:18 0.00228225
11 *71:10 *123:12 0.000765683
12 *71:10 *183:176 7.74686e-05
13 *71:10 *209:16 0
14 *71:10 *209:28 0.000437162
15 *71:10 *225:76 0.00259727
16 *71:10 *227:39 0.000188019
17 *1504:A2 *1504:A3 4.83971e-05
18 *42:26 *71:10 8.4047e-05
19 *53:30 *71:10 1.06693e-05
20 *56:20 *71:10 0.000320806
21 *56:52 *71:10 0.000976191
*RES
1 *1498:Y *71:8 48.15 
2 *71:8 *71:10 65.9957 
3 *71:10 *1504:A3 43.2821 
*END

*D_NET *72 0.0166882
*CONN
*I *1502:B1 I *D sky130_fd_sc_hd__a211o_1
*I *1501:B I *D sky130_fd_sc_hd__or3b_2
*I *1499:Y O *D sky130_fd_sc_hd__nor2_1
*CAP
1 *1502:B1 0.000152075
2 *1501:B 2.05023e-05
3 *1499:Y 0.00139759
4 *72:23 0.00152977
5 *72:12 0.0013982
6 *72:10 0.00184538
7 *72:8 0.00324297
8 *1501:B *204:61 2.22079e-05
9 *1501:B *213:26 6.48049e-05
10 *1502:B1 *1502:A2 0.000137361
11 *1502:B1 *75:10 0.00022034
12 *1502:B1 *209:54 3.40134e-05
13 *72:8 *1384:A 0.00048446
14 *72:8 *1499:B 1.32314e-05
15 *72:8 *206:43 0.000117679
16 *72:10 *1552:C 0.000232909
17 *72:10 *119:6 0.00135251
18 *72:23 *1407:B1 6.30761e-05
19 *72:23 *1473:A 0.000456087
20 *72:23 *80:10 0.000438976
21 *72:23 *102:26 0.000110196
22 *72:23 *141:28 0.000869048
23 *72:23 *196:47 3.24739e-05
24 *72:23 *196:66 0.000186506
25 *72:23 *204:61 0.000306511
26 *72:23 *205:53 0.00140793
27 *72:23 *213:26 0.00049722
28 *1552:A *72:10 5.41288e-05
*RES
1 *1499:Y *72:8 46.9871 
2 *72:8 *72:10 37.3064 
3 *72:10 *72:12 15 
4 *72:12 *1501:B 38.8493 
5 *72:12 *72:23 39.585 
6 *72:23 *1502:B1 41.5007 
*END

*D_NET *73 0.0100863
*CONN
*I *1502:A2 I *D sky130_fd_sc_hd__a211o_1
*I *1501:C_N I *D sky130_fd_sc_hd__or3b_2
*I *1500:Y O *D sky130_fd_sc_hd__nand2_1
*CAP
1 *1502:A2 0.000407503
2 *1501:C_N 0
3 *1500:Y 0.000250236
4 *73:23 0.00106489
5 *73:12 0.000873836
6 *73:6 0.00178146
7 *1502:A2 *1412:B 1.59094e-05
8 *1502:A2 *183:14 0.000414163
9 *73:6 *1500:A 2.11859e-05
10 *73:12 *1401:A1 1.05235e-05
11 *73:12 *1500:A 1.861e-05
12 *73:12 *74:26 0.000165987
13 *73:12 *196:36 0.000855786
14 *73:12 *196:47 0.000512156
15 *73:12 *226:56 0.000883503
16 *73:12 *226:69 0.000486284
17 *73:23 *136:100 1.17152e-05
18 *73:23 *136:106 0.000458421
19 *73:23 *142:106 5.46254e-05
20 *73:23 *146:39 0.000163361
21 *73:23 *153:39 1.12487e-05
22 *73:23 *200:34 0.000138718
23 *1502:B1 *1502:A2 0.000137361
24 *47:39 *73:23 0.000697832
25 *47:41 *73:23 0.000169416
26 *57:48 *73:23 0.000481546
*RES
1 *1500:Y *73:6 26.0036 
2 *73:6 *73:12 37.2886 
3 *73:12 *1501:C_N 38 
4 *73:6 *73:23 35.9214 
5 *73:23 *1502:A2 45.7679 
*END

*D_NET *74 0.021295
*CONN
*I *1503:B1 I *D sky130_fd_sc_hd__o211ai_2
*I *1501:X O *D sky130_fd_sc_hd__or3b_2
*CAP
1 *1503:B1 0
2 *1501:X 0.00012058
3 *74:34 0.000299436
4 *74:26 0.00797703
5 *74:12 0.00779817
6 *74:12 *92:16 0
7 *74:12 *196:36 7.20089e-05
8 *74:12 *213:26 2.2781e-05
9 *74:26 *1508:B 0.000171752
10 *74:26 *75:14 0.000231259
11 *74:26 *78:22 0
12 *74:26 *80:10 0.000119659
13 *74:26 *85:22 0.000417157
14 *74:26 *102:26 9.78827e-05
15 *74:26 *134:93 0
16 *74:26 *143:30 0.00014977
17 *74:26 *149:87 0.000257501
18 *74:26 *177:24 0
19 *74:26 *196:36 0.000160205
20 *74:26 *196:47 0.000129945
21 *74:26 *212:22 0.00137291
22 *74:26 *226:56 0.000152009
23 *74:34 *75:14 0.000478273
24 *45:33 *74:26 0.000121973
25 *47:12 *74:26 0.000118746
26 *49:18 *74:34 0.000483955
27 *49:55 *74:26 0.00027375
28 *57:48 *74:26 0.000102245
29 *73:12 *74:26 0.000165987
*RES
1 *1501:X *74:12 47.2102 
2 *74:12 *74:26 49.9909 
3 *74:26 *74:34 29.7586 
4 *74:34 *1503:B1 23 
*END

*D_NET *75 0.012606
*CONN
*I *1503:C1 I *D sky130_fd_sc_hd__o211ai_2
*I *1502:X O *D sky130_fd_sc_hd__a211o_1
*CAP
1 *1503:C1 5.45623e-05
2 *1502:X 0.00114917
3 *75:14 0.00201194
4 *75:12 0.00195737
5 *75:10 0.00114917
6 *1503:C1 *183:70 5.56356e-05
7 *1503:C1 *215:14 2.46906e-05
8 *75:10 *108:20 7.62459e-05
9 *75:10 *185:31 9.46717e-05
10 *75:10 *193:56 0.000558843
11 *75:10 *209:54 5.61255e-06
12 *75:14 *76:16 0.00141025
13 *75:14 *114:10 0
14 *75:14 *119:10 0.00108033
15 *75:14 *168:18 0.00178896
16 *75:14 *186:18 0
17 *1502:B1 *75:10 0.00022034
18 *37:23 *75:14 0
19 *49:18 *75:14 0.000258647
20 *74:26 *75:14 0.000231259
21 *74:34 *75:14 0.000478273
*RES
1 *1502:X *75:10 40.4621 
2 *75:10 *75:12 15 
3 *75:12 *75:14 48.7407 
4 *75:14 *1503:C1 39.0979 
*END

*D_NET *76 0.0177289
*CONN
*I *1504:B1 I *D sky130_fd_sc_hd__a31o_1
*I *1503:Y O *D sky130_fd_sc_hd__o211ai_2
*CAP
1 *1504:B1 0
2 *1503:Y 0
3 *76:26 0.000353193
4 *76:16 0.00571731
5 *76:6 0.00536411
6 *76:16 *82:20 0.00331329
7 *76:16 *84:26 1.93512e-05
8 *76:16 *123:12 0.000148302
9 *76:16 *150:16 0
10 *76:16 *167:24 0.000130071
11 *76:16 *186:18 0
12 *76:16 *222:45 0.000418023
13 *76:16 *225:76 0.000302076
14 *76:26 *122:20 9.40736e-05
15 *76:26 *190:28 3.73341e-05
16 *76:26 *206:56 4.51746e-05
17 *76:26 *225:64 1.16551e-05
18 *49:18 *76:16 0
19 *53:30 *76:16 0.000159337
20 *53:30 *76:26 8.52094e-06
21 *70:16 *76:26 0.000196861
22 *75:14 *76:16 0.00141025
*RES
1 *1503:Y *76:6 38 
2 *76:6 *76:16 48.7351 
3 *76:16 *76:26 34.4947 
4 *76:26 *1504:B1 23 
*END

*D_NET *77 0.010047
*CONN
*I *1505:B1 I *D sky130_fd_sc_hd__a21o_1
*I *1504:X O *D sky130_fd_sc_hd__a31o_1
*CAP
1 *1505:B1 0
2 *1504:X 0.000914664
3 *77:24 0.00210699
4 *77:10 0.00302166
5 *77:10 *130:89 0.000202372
6 *77:10 *183:176 0.00115807
7 *77:10 *195:44 0.000310884
8 *77:24 *113:16 0.000171529
9 *77:24 *119:10 0.000169718
10 *77:24 *145:22 0.000721121
11 *77:24 *183:176 0.000208475
12 *77:24 *204:46 2.31532e-05
13 *77:24 *205:78 3.63287e-05
14 *77:24 *206:62 7.59217e-06
15 *77:24 *229:91 0.000271995
16 *1504:A2 *77:10 2.02872e-05
17 *1504:A3 *77:10 9.87385e-06
18 *32:26 *77:24 0.000621368
19 *49:65 *77:24 4.96982e-05
20 *62:20 *77:24 2.12441e-05
*RES
1 *1504:X *77:10 41.2907 
2 *77:10 *77:24 49.4901 
3 *77:24 *1505:B1 38 
*END

*D_NET *78 0.0276354
*CONN
*I *1508:A I *D sky130_fd_sc_hd__xor2_2
*I *1514:B1 I *D sky130_fd_sc_hd__o221a_1
*I *1506:Y O *D sky130_fd_sc_hd__xnor2_4
*CAP
1 *1508:A 7.50761e-06
2 *1514:B1 0
3 *1506:Y 3.49083e-05
4 *78:30 0.00069485
5 *78:22 0.00877192
6 *78:10 0.00810447
7 *78:10 *180:27 0
8 *78:10 *229:74 0
9 *78:22 *88:24 0
10 *78:22 *102:26 0.0027226
11 *78:22 *108:20 0.000228963
12 *78:22 *131:58 0.000289083
13 *78:22 *149:61 0.000310477
14 *78:22 *149:67 0.000110915
15 *78:22 *155:20 0.00011565
16 *78:22 *166:10 0.000329049
17 *78:22 *177:24 0.000270747
18 *78:22 *205:78 7.35173e-05
19 *78:22 *212:22 0.00156662
20 *78:22 *230:58 0.000112947
21 *78:30 *1514:B2 2.34279e-05
22 *78:30 *211:41 0.00014064
23 *45:33 *1508:A 1.28035e-05
24 *45:33 *78:30 0.000588489
25 *46:10 *78:22 0.000277755
26 *47:39 *1508:A 2.26497e-05
27 *47:39 *78:30 0.000642049
28 *60:16 *78:22 0.00173814
29 *60:41 *78:22 0.000119379
30 *62:20 *78:22 8.88182e-05
31 *65:16 *78:22 0.000173116
32 *67:12 *78:22 6.39064e-05
33 *74:26 *78:22 0
*RES
1 *1506:Y *78:10 46.6732 
2 *78:10 *78:22 47.7552 
3 *78:22 *78:30 31.3332 
4 *78:30 *1514:B1 23 
5 *78:22 *1508:A 38.3211 
*END

*D_NET *79 0.0168201
*CONN
*I *1508:B I *D sky130_fd_sc_hd__xor2_2
*I *1507:X O *D sky130_fd_sc_hd__o21a_1
*CAP
1 *1508:B 0.000395106
2 *1507:X 0.00195948
3 *79:14 0.00347044
4 *79:8 0.00503482
5 *1508:B *143:30 0.00109965
6 *1508:B *151:22 0.00110281
7 *79:8 *1507:B1 0.000267093
8 *79:8 *192:32 0.000995045
9 *79:14 *136:96 2.81066e-05
10 *79:14 *153:33 4.59166e-05
11 *79:14 *164:48 0.000135037
12 *79:14 *186:24 0.000316338
13 *79:14 *192:32 0.0017985
14 *74:26 *1508:B 0.000171752
*RES
1 *1507:X *79:8 48.4164 
2 *79:8 *79:14 41.76 
3 *79:14 *1508:B 44.935 
*END

*D_NET *80 0.0143774
*CONN
*I *1509:B1 I *D sky130_fd_sc_hd__o21ai_2
*I *1510:B I *D sky130_fd_sc_hd__or3_4
*I *1508:X O *D sky130_fd_sc_hd__xor2_2
*CAP
1 *1509:B1 0
2 *1510:B 0.000452792
3 *1508:X 0
4 *80:27 0.000446104
5 *80:14 0.00185881
6 *80:10 0.0016447
7 *80:6 0.000684782
8 *1510:B *225:24 9.41704e-05
9 *1510:B *225:28 0.00173687
10 *80:10 *1407:B1 6.07848e-05
11 *80:10 *141:28 0.000156789
12 *80:10 *196:47 0.000366119
13 *80:10 *213:26 0.000238194
14 *80:14 *225:28 1.41129e-05
15 *80:14 *225:36 0.000909359
16 *80:27 *81:20 2.31435e-05
17 *80:27 *107:10 0.000674803
18 *47:12 *80:10 0.000772582
19 *47:22 *1510:B 4.66047e-05
20 *57:23 *1510:B 0.000938627
21 *57:23 *80:14 5.50049e-05
22 *57:35 *80:27 0.000451068
23 *57:44 *80:14 0.00219335
24 *72:23 *80:10 0.000438976
25 *74:26 *80:10 0.000119659
*RES
1 *1508:X *80:6 38 
2 *80:6 *80:10 34.1607 
3 *80:10 *80:14 25.4164 
4 *80:14 *1510:B 43.155 
5 *80:14 *80:27 41.7657 
6 *80:27 *1509:B1 23 
*END

*D_NET *81 0.0275951
*CONN
*I *1516:A2 I *D sky130_fd_sc_hd__a31o_4
*I *1509:Y O *D sky130_fd_sc_hd__o21ai_2
*CAP
1 *1516:A2 0
2 *1509:Y 0.000134085
3 *81:32 0.00350494
4 *81:20 0.00583012
5 *81:8 0.00245927
6 *81:8 *176:36 0.000168852
7 *81:20 *107:10 0.000485577
8 *81:20 *131:33 0.000265999
9 *81:20 *134:117 0.000531581
10 *81:20 *199:10 0.000605541
11 *81:20 *229:91 0.00189127
12 *81:32 *1516:A3 7.64805e-05
13 *81:32 *82:20 0.0069841
14 *81:32 *122:20 0.000175738
15 *81:32 *138:16 0.000352929
16 *81:32 *139:10 0.000115038
17 *81:32 *159:21 4.78343e-05
18 *81:32 *167:34 1.0465e-05
19 *81:32 *167:64 0.000104708
20 *81:32 *209:16 0.000191591
21 *81:32 *229:47 0
22 *32:26 *81:20 0.000129473
23 *40:20 *81:32 0.000119184
24 *52:24 *81:32 0.00263116
25 *53:24 *81:32 0.000756023
26 *80:27 *81:20 2.31435e-05
*RES
1 *1509:Y *81:8 40.0507 
2 *81:8 *81:20 42.8883 
3 *81:20 *81:32 49.1495 
4 *81:32 *1516:A2 23 
*END

*D_NET *82 0.0210772
*CONN
*I *1516:A3 I *D sky130_fd_sc_hd__a31o_4
*I *1510:X O *D sky130_fd_sc_hd__or3_4
*CAP
1 *1516:A3 7.45234e-05
2 *1510:X 0.000182693
3 *82:20 0.00415731
4 *82:8 0.00426548
5 *1516:A3 *159:21 9.67335e-06
6 *1516:A3 *207:21 3.27827e-05
7 *82:8 *130:97 3.97293e-05
8 *82:8 *219:26 0.000334187
9 *82:8 *227:21 0.000434763
10 *82:20 *93:22 9.28029e-05
11 *82:20 *109:10 0.000191591
12 *82:20 *111:24 0.000120027
13 *82:20 *169:45 2.32089e-05
14 *82:20 *193:8 0.000102328
15 *82:20 *208:12 0.0001646
16 *82:20 *225:76 0.000129945
17 *52:24 *82:20 0.000201423
18 *53:30 *82:20 0.000146226
19 *76:16 *82:20 0.00331329
20 *81:32 *1516:A3 7.64805e-05
21 *81:32 *82:20 0.0069841
*RES
1 *1510:X *82:8 43.9554 
2 *82:8 *82:20 42.1029 
3 *82:20 *1516:A3 47.7296 
*END

*D_NET *83 0.0163349
*CONN
*I *1515:A2 I *D sky130_fd_sc_hd__a21bo_1
*I *1511:Y O *D sky130_fd_sc_hd__o21ai_1
*CAP
1 *1515:A2 7.47196e-05
2 *1511:Y 0
3 *83:10 0.00118862
4 *83:8 0.0011139
5 *83:6 0.00267221
6 *83:4 0.00267221
7 *83:6 *87:14 0.00358893
8 *83:10 *86:10 3.70187e-05
9 *83:10 *182:12 0.00237261
10 *83:10 *182:18 0.000181462
11 *83:10 *188:128 0.000183102
12 *83:10 *215:18 0.00194372
13 *56:73 *1515:A2 0.000106459
14 *58:12 *1515:A2 0.000199876
*RES
1 *1511:Y *83:4 23 
2 *83:4 *83:6 39.6886 
3 *83:6 *83:8 15 
4 *83:8 *83:10 39.2329 
5 *83:10 *1515:A2 40.7239 
*END

*D_NET *84 0.0240089
*CONN
*I *1513:B1 I *D sky130_fd_sc_hd__a31oi_2
*I *1512:X O *D sky130_fd_sc_hd__o21a_1
*CAP
1 *1513:B1 0
2 *1512:X 0.000151506
3 *84:30 0.00065914
4 *84:26 0.00769103
5 *84:12 0.0071834
6 *84:12 *1450:A1 1.80156e-05
7 *84:12 *186:89 5.58003e-05
8 *84:26 *167:24 8.95935e-05
9 *84:26 *179:20 0.000207408
10 *84:26 *229:59 0.00459054
11 *84:30 *181:70 0.00174032
12 *48:28 *84:26 0
13 *55:31 *84:26 0.00061367
14 *56:52 *84:26 0
15 *56:56 *84:30 0.000815706
16 *56:71 *84:30 9.14874e-05
17 *66:32 *84:26 8.1892e-05
18 *76:16 *84:26 1.93512e-05
*RES
1 *1512:X *84:12 48.2475 
2 *84:12 *84:26 48.18 
3 *84:26 *84:30 34.6786 
4 *84:30 *1513:B1 23 
*END

*D_NET *85 0.0229222
*CONN
*I *1514:C1 I *D sky130_fd_sc_hd__o221a_1
*I *1513:Y O *D sky130_fd_sc_hd__a31oi_2
*CAP
1 *1514:C1 1.38655e-05
2 *1513:Y 0.000412289
3 *85:22 0.00899467
4 *85:10 0.0093931
5 *1514:C1 *134:107 2.33476e-05
6 *85:10 *120:27 0.000320083
7 *85:10 *131:76 0.0001446
8 *85:10 *159:10 0.000624504
9 *85:10 *163:31 9.41704e-05
10 *85:10 *181:70 0.00030373
11 *85:22 *134:93 0.00115357
12 *85:22 *149:87 2.95166e-05
13 *85:22 *229:91 0.000213884
14 *49:55 *85:22 0
15 *52:24 *85:22 0.000783729
16 *53:24 *85:22 0
17 *74:26 *85:22 0.000417157
*RES
1 *1513:Y *85:10 49.9004 
2 *85:10 *85:22 42.5397 
3 *85:22 *1514:C1 46.3211 
*END

*D_NET *86 0.0057274
*CONN
*I *1515:B1_N I *D sky130_fd_sc_hd__a21bo_1
*I *1514:X O *D sky130_fd_sc_hd__o221a_1
*CAP
1 *1515:B1_N 0
2 *1514:X 8.51862e-05
3 *86:10 0.00139168
4 *86:8 0.00147687
5 *86:10 *1514:A2 0.000194333
6 *86:10 *182:18 0.000433367
7 *86:10 *183:131 0.000156014
8 *86:10 *188:61 0.000829245
9 *86:10 *188:128 0.000300168
10 *86:10 *216:10 0.000380243
11 out[5] *86:10 4.32584e-05
12 *43:16 *86:10 0.000400015
13 *50:29 *86:10 0
14 *83:10 *86:10 3.70187e-05
*RES
1 *1514:X *86:8 39.0979 
2 *86:8 *86:10 41.3457 
3 *86:10 *1515:B1_N 38 
*END

*D_NET *87 0.0224836
*CONN
*I *1516:B1 I *D sky130_fd_sc_hd__a31o_4
*I *1515:X O *D sky130_fd_sc_hd__a21bo_1
*CAP
1 *1516:B1 3.73824e-05
2 *1515:X 0.000554844
3 *87:14 0.0033327
4 *87:12 0.00329532
5 *87:10 0.000847284
6 *87:8 0.00140213
7 *87:8 *1485:A 0.0004423
8 *87:10 *213:32 0.0028993
9 *87:14 *1418:A 7.02666e-05
10 *87:14 *162:8 0.000141352
11 *1511:A1 *87:14 0.00032897
12 *43:18 *87:10 0.000531324
13 *53:126 *87:14 0.000509087
14 *62:10 *87:10 0.000973274
15 *66:14 *87:14 0.00253563
16 *66:32 *87:14 0.000178391
17 *69:46 *87:14 0.000815143
18 *83:6 *87:14 0.00358893
*RES
1 *1515:X *87:8 45.2914 
2 *87:8 *87:10 38.1764 
3 *87:10 *87:12 15 
4 *87:12 *87:14 80.185 
5 *87:14 *1516:B1 23.8493 
*END

*D_NET *88 0.0217332
*CONN
*I *1521:A3 I *D sky130_fd_sc_hd__a31o_1
*I *1517:X O *D sky130_fd_sc_hd__or2_1
*CAP
1 *1521:A3 0
2 *1517:X 7.05323e-05
3 *88:24 0.00680674
4 *88:12 0.00687727
5 *88:12 *155:20 4.93791e-05
6 *88:24 *99:10 0.000155272
7 *88:24 *118:10 0.000260566
8 *88:24 *130:43 0.000102381
9 *88:24 *130:165 0.000121294
10 *88:24 *146:8 0.000175851
11 *88:24 *158:45 0.000169049
12 *88:24 *165:16 0.000102381
13 *88:24 *176:24 0.000125405
14 *88:24 *176:28 6.69637e-06
15 *88:24 *177:24 0.000657334
16 *88:24 *178:12 0.000185018
17 *88:24 *211:24 0.000224817
18 *88:24 *226:44 0.000146301
19 *88:24 *229:91 0.00113713
20 *48:28 *88:24 0.00302631
21 *60:16 *88:24 0.0012207
22 *60:35 *88:12 9.86551e-06
23 *60:35 *88:24 0.000102921
24 *78:22 *88:24 0
*RES
1 *1517:X *88:12 46.42 
2 *88:12 *88:24 46.0843 
3 *88:24 *1521:A3 38 
*END

*D_NET *89 0.01444
*CONN
*I *1519:B1 I *D sky130_fd_sc_hd__a31o_1
*I *1518:Y O *D sky130_fd_sc_hd__o211ai_2
*CAP
1 *1519:B1 0.00027777
2 *1518:Y 0.00141431
3 *89:10 0.00237712
4 *89:8 0.00209935
5 *89:6 0.00141431
6 *1519:B1 *1519:A1 0.000864376
7 *1519:B1 *1519:A2 2.02872e-05
8 *1519:B1 *185:16 0.000686555
9 *89:6 *137:165 0.000771245
10 *89:6 *208:6 0.000575004
11 *89:10 *1535:A1 0.000193133
12 *89:10 *104:22 0.000149069
13 *89:10 *133:137 0
14 *89:10 *133:146 0
15 *89:10 *133:179 0
16 *89:10 *134:56 0.000367792
17 *89:10 *161:10 0.000342536
18 *89:10 *164:10 0
19 *89:10 *164:23 0.000885349
20 *89:10 *167:64 0.000286133
21 *89:10 *188:96 0.000176429
22 *1497:A *89:10 0.000215252
23 *68:31 *89:10 0.00118623
24 *70:12 *89:10 0.000137754
*RES
1 *1518:Y *89:6 46.0136 
2 *89:6 *89:8 15 
3 *89:8 *89:10 51.5579 
4 *89:10 *1519:B1 47.1971 
*END

*D_NET *90 0.00189218
*CONN
*I *1520:B1 I *D sky130_fd_sc_hd__o21ai_2
*I *1519:X O *D sky130_fd_sc_hd__a31o_1
*CAP
1 *1520:B1 0
2 *1519:X 0.000275501
3 *90:10 0.000275501
4 *90:10 *1519:A1 9.66668e-05
5 *90:10 *91:14 0.000508926
6 *90:10 *111:24 0.000109432
7 *90:10 *162:27 3.85353e-05
8 *90:10 *163:14 0.000587616
*RES
1 *1519:X *90:10 46.99 
2 *90:10 *1520:B1 38 
*END

*D_NET *91 0.0187463
*CONN
*I *1521:B1 I *D sky130_fd_sc_hd__a31o_1
*I *1520:Y O *D sky130_fd_sc_hd__o21ai_2
*CAP
1 *1521:B1 0
2 *1520:Y 0
3 *91:28 0.000756005
4 *91:24 0.00115173
5 *91:16 0.0016517
6 *91:14 0.00182902
7 *91:6 0.000573056
8 *91:14 *147:25 0.000225253
9 *91:14 *156:41 0.000144061
10 *91:14 *162:27 0.00100424
11 *91:14 *163:14 0.000240637
12 *91:16 *103:10 0.000151933
13 *91:16 *104:22 0.000651686
14 *91:16 *153:22 0.00015795
15 *91:16 *161:10 0.00178681
16 *91:16 *170:22 0.00116572
17 *91:16 *201:27 0.00158729
18 *91:16 *201:31 0.000126114
19 *91:16 *227:45 0.000418617
20 *91:24 *103:10 0.000167587
21 *91:24 *144:28 0.000227978
22 *91:24 *222:16 9.39882e-05
23 *91:28 *148:60 0.000184527
24 *91:28 *211:14 0.000270096
25 *1491:B *91:28 0.000347205
26 *53:70 *91:28 0.000447359
27 *63:33 *91:28 0.000209225
28 *64:10 *91:28 0.00266762
29 *90:10 *91:14 0.000508926
*RES
1 *1520:Y *91:6 38 
2 *91:6 *91:14 48.4357 
3 *91:14 *91:16 43.1064 
4 *91:16 *91:24 37.6021 
5 *91:24 *91:28 44.6836 
6 *91:28 *1521:B1 23 
*END

*D_NET *92 0.0388141
*CONN
*I *1523:B2 I *D sky130_fd_sc_hd__o22a_1
*I *1522:Y O *D sky130_fd_sc_hd__a21oi_2
*CAP
1 *1523:B2 0
2 *1522:Y 1.50279e-05
3 *92:26 0.000410667
4 *92:16 0.0140326
5 *92:10 0.0136369
6 *92:10 *1522:B1 5.58873e-06
7 *92:16 *93:22 0.00775354
8 *92:16 *106:24 0.00173413
9 *92:16 *111:12 4.62843e-05
10 *92:16 *149:22 0.000410546
11 *92:16 *177:24 0
12 *92:16 *199:16 0.000104555
13 *92:16 *220:34 0.00013672
14 *92:26 *93:22 4.16651e-06
15 *92:26 *186:71 2.33476e-05
16 *50:12 *92:10 6.10551e-06
17 *56:58 *92:16 0.000493879
18 *74:12 *92:16 0
*RES
1 *1522:Y *92:10 46.3211 
2 *92:10 *92:16 44.7155 
3 *92:16 *92:26 31.9352 
4 *92:26 *1523:B2 23 
*END

*D_NET *93 0.0260813
*CONN
*I *1531:A I *D sky130_fd_sc_hd__or4b_1
*I *1523:X O *D sky130_fd_sc_hd__o22a_1
*CAP
1 *1531:A 6.34613e-05
2 *1523:X 0.000429267
3 *93:22 0.00652889
4 *93:10 0.00689469
5 *1531:A *97:18 0.000179465
6 *93:10 *1523:A1 5.40337e-05
7 *93:10 *131:121 0.000235823
8 *93:10 *133:179 8.17242e-05
9 *93:10 *208:6 1.56011e-05
10 *93:22 *169:45 0.000208342
11 *93:22 *203:16 0.00029303
12 *93:22 *203:25 0.000368085
13 *93:22 *205:12 0.000262586
14 *93:22 *206:16 0.000208809
15 *93:22 *206:87 0.000407144
16 *93:22 *219:22 0.00139547
17 *93:22 *229:14 0
18 *93:22 *229:91 0
19 *1510:C *1531:A 0.000179465
20 *19:17 *93:10 0
21 *39:24 *93:22 0.000375204
22 *52:34 *93:22 4.96824e-05
23 *82:20 *93:22 9.28029e-05
24 *92:16 *93:22 0.00775354
25 *92:26 *93:22 4.16651e-06
*RES
1 *1523:X *93:10 45.5711 
2 *93:10 *93:22 47.8933 
3 *93:22 *1531:A 48.4339 
*END

*D_NET *94 0.00820192
*CONN
*I *1525:C I *D sky130_fd_sc_hd__and3b_1
*I *1524:X O *D sky130_fd_sc_hd__a22o_1
*CAP
1 *1525:C 0
2 *1524:X 1.7714e-05
3 *94:16 0.000515654
4 *94:8 0.00262218
5 *94:6 0.00212424
6 *94:6 *1524:A2 1.83076e-05
7 *94:8 *1437:A 0.000107381
8 *94:8 *132:14 0.000151691
9 *94:8 *137:53 0.000414076
10 *94:8 *188:69 0.00022034
11 *94:8 *188:75 0.000476497
12 *94:8 *209:36 0.000182666
13 *94:8 *210:40 0.000148403
14 *94:16 *1525:B 7.57281e-06
15 *94:16 *220:16 0.000695911
16 *30:14 *94:8 0.000399218
17 *35:63 *94:16 0
18 *56:73 *94:16 0.000100069
*RES
1 *1524:X *94:6 23.4971 
2 *94:6 *94:8 36.3536 
3 *94:8 *94:16 40.7507 
4 *94:16 *1525:C 23 
*END

*D_NET *95 0.0159175
*CONN
*I *1526:B1 I *D sky130_fd_sc_hd__a31o_1
*I *1525:X O *D sky130_fd_sc_hd__and3b_1
*CAP
1 *1526:B1 4.14734e-05
2 *1525:X 0.00169072
3 *95:30 0.00100461
4 *95:26 0.0012428
5 *95:18 0.00108459
6 *95:6 0.00249564
7 *1526:B1 *131:33 0.000187067
8 *95:6 *163:33 0.00202078
9 *95:18 *1437:B 0.000259337
10 *95:18 *112:10 0.000420293
11 *95:18 *164:48 8.94487e-05
12 *95:18 *180:19 0.000308267
13 *95:18 *209:36 1.55417e-05
14 *95:18 *209:46 0.000110258
15 *95:18 *210:32 0.000540458
16 *95:18 *222:31 0
17 *95:26 *112:10 3.3746e-05
18 *95:26 *153:22 0.000175903
19 *95:26 *156:22 0.000161121
20 *95:26 *164:54 0.000133316
21 *95:30 *112:10 0.000135035
22 *95:30 *156:28 0.000939709
23 *95:30 *169:45 0.000171769
24 *95:30 *179:42 0.00195026
25 *95:30 *195:52 0.000359888
26 *33:26 *95:26 2.24973e-05
27 *55:14 *95:18 0.000137651
28 *63:16 *1526:B1 0.00018536
29 *66:36 *95:30 0
*RES
1 *1525:X *95:6 46.0136 
2 *95:6 *95:18 49.3886 
3 *95:18 *95:26 35.0129 
4 *95:26 *95:30 42.26 
5 *95:30 *1526:B1 40.0507 
*END

*D_NET *96 0.000616258
*CONN
*I *1531:B I *D sky130_fd_sc_hd__or4b_1
*I *1526:X O *D sky130_fd_sc_hd__a31o_1
*CAP
1 *1531:B 0
2 *1526:X 0.00020784
3 *96:10 0.00020784
4 *96:10 *97:18 3.87236e-05
5 *96:10 *201:43 0.000100069
6 *96:10 *210:54 4.62582e-05
7 *1481:C1 *96:10 1.55285e-05
8 *1510:C *96:10 0
*RES
1 *1526:X *96:10 42.06 
2 *96:10 *1531:B 38 
*END

*D_NET *97 0.0174804
*CONN
*I *1531:C I *D sky130_fd_sc_hd__or4b_1
*I *1527:Y O *D sky130_fd_sc_hd__nor2_1
*CAP
1 *1531:C 0
2 *1527:Y 0.000827364
3 *97:18 0.00199734
4 *97:16 0.00378712
5 *97:12 0.00225104
6 *97:8 0.00128862
7 *97:8 *131:62 0.000531213
8 *97:12 *176:10 0.00110303
9 *97:12 *197:37 0.00110517
10 *97:16 *135:36 0.000444726
11 *97:16 *180:8 5.3304e-05
12 *97:16 *208:28 0.000233367
13 *97:16 *209:28 0.000136507
14 *97:18 *130:73 0
15 *97:18 *133:40 0.0011347
16 *97:18 *179:40 0
17 *97:18 *209:28 6.38342e-05
18 *97:18 *210:54 0
19 *97:18 *227:39 1.16767e-05
20 *1510:C *97:18 1.09547e-05
21 *1531:A *97:18 0.000179465
22 *71:10 *97:18 0.00228225
23 *96:10 *97:18 3.87236e-05
*RES
1 *1527:Y *97:8 49.1029 
2 *97:8 *97:12 30.2871 
3 *97:12 *97:16 37.0607 
4 *97:16 *97:18 45.9236 
5 *97:18 *1531:C 38 
*END

*D_NET *98 0.010386
*CONN
*I *1529:A I *D sky130_fd_sc_hd__nor2_1
*I *1528:X O *D sky130_fd_sc_hd__and2b_1
*CAP
1 *1529:A 0
2 *1528:X 0.00012349
3 *98:10 0.00223517
4 *98:8 0.00235866
5 *98:8 *1547:A 9.64943e-05
6 *98:8 *186:63 2.38602e-06
7 *98:10 *1386:B 0.000255858
8 *98:10 *106:12 7.39704e-05
9 *98:10 *128:27 0.000558225
10 *98:10 *129:10 1.79668e-05
11 *98:10 *130:29 7.56417e-05
12 *98:10 *145:24 0.00108011
13 *98:10 *148:10 0.000128326
14 *98:10 *150:10 4.77461e-05
15 *98:10 *175:26 0
16 *98:10 *183:78 0.000137744
17 *1528:B *98:8 2.45549e-06
18 *33:45 *98:10 0.000336688
19 *67:24 *98:10 0.000163326
20 *68:8 *98:10 0.00269172
*RES
1 *1528:X *98:8 39.5743 
2 *98:8 *98:10 58.2486 
3 *98:10 *1529:A 38 
*END

*D_NET *99 0.012997
*CONN
*I *1530:B I *D sky130_fd_sc_hd__or3b_1
*I *1529:Y O *D sky130_fd_sc_hd__nor2_1
*CAP
1 *1530:B 0
2 *1529:Y 0.00149643
3 *99:16 0.000494041
4 *99:10 0.0012348
5 *99:6 0.00223719
6 *99:6 *152:20 0.000142011
7 *99:10 *177:28 5.26426e-05
8 *99:10 *178:12 0.00162479
9 *99:16 *100:6 0.00153876
10 *35:18 *99:16 0.00171194
11 *49:65 *99:10 0.000274626
12 *62:20 *99:10 7.28313e-05
13 *63:6 *99:6 0.00144534
14 *64:10 *99:16 5.50049e-05
15 *64:16 *99:10 0.000461366
16 *88:24 *99:10 0.000155272
*RES
1 *1529:Y *99:6 42.6786 
2 *99:6 *99:10 37.33 
3 *99:10 *99:16 34.6993 
4 *99:16 *1530:B 23 
*END

*D_NET *100 0.0111643
*CONN
*I *1531:D_N I *D sky130_fd_sc_hd__or4b_1
*I *1530:X O *D sky130_fd_sc_hd__or3b_1
*CAP
1 *1531:D_N 0
2 *1530:X 0.00116073
3 *100:24 0.00045401
4 *100:18 0.00107665
5 *100:12 0.000776009
6 *100:6 0.0013141
7 *100:12 *135:16 0.000107651
8 *100:12 *178:12 3.43537e-05
9 *100:18 *133:58 0.000996807
10 *100:24 *133:58 0.000698697
11 *1495:A *100:24 0.000269775
12 *1495:B *100:24 5.3304e-05
13 *49:65 *100:12 0.000349386
14 *51:14 *100:18 0.00185466
15 *51:14 *100:24 0.000469278
16 *64:16 *100:12 1.01436e-05
17 *99:16 *100:6 0.00153876
*RES
1 *1530:X *100:6 40.2964 
2 *100:6 *100:12 34.7229 
3 *100:12 *100:18 36.7293 
4 *100:18 *100:24 28.5057 
5 *100:24 *1531:D_N 23 
*END

*D_NET *101 0.00289127
*CONN
*I *1532:A I *D sky130_fd_sc_hd__dlymetal6s2s_1
*I *1531:X O *D sky130_fd_sc_hd__or4b_1
*CAP
1 *1532:A 0.000286601
2 *1531:X 0.000628147
3 *101:8 0.000914748
4 *1532:A *110:8 0.000814121
5 *101:8 *181:123 0
6 *101:8 *219:26 0
7 *1481:C1 *101:8 0
8 *1510:A *101:8 4.43614e-05
9 *1510:C *101:8 0.000162422
10 *57:10 *101:8 4.08641e-05
*RES
1 *1531:X *101:8 49.0614 
2 *101:8 *1532:A 47.2179 
*END

*D_NET *102 0.0247749
*CONN
*I *1540:A3 I *D sky130_fd_sc_hd__a31o_1
*I *1533:X O *D sky130_fd_sc_hd__or3_2
*CAP
1 *1540:A3 0
2 *1533:X 0.00121091
3 *102:26 0.00347801
4 *102:14 0.00641477
5 *102:6 0.00414768
6 *102:6 *129:46 9.67842e-05
7 *102:6 *138:37 0.000392594
8 *102:6 *210:121 4.05745e-05
9 *102:14 *196:114 0.00132684
10 *102:14 *201:84 0
11 *102:14 *212:22 0.000107024
12 *102:26 *1473:A 9.72743e-05
13 *102:26 *136:90 0.00011563
14 *102:26 *141:28 0.00010009
15 *102:26 *146:18 0.000119516
16 *102:26 *192:28 0.00011563
17 *102:26 *205:53 0.000213497
18 *1533:A *102:6 0.000820859
19 *1540:A2 *102:26 1.13812e-05
20 *46:10 *102:26 0.000177066
21 *48:28 *102:14 2.40669e-05
22 *49:55 *102:26 0.00283401
23 *72:23 *102:26 0.000110196
24 *74:26 *102:26 9.78827e-05
25 *78:22 *102:26 0.0027226
*RES
1 *1533:X *102:6 40.7729 
2 *102:6 *102:14 44.814 
3 *102:14 *102:26 42.169 
4 *102:26 *1540:A3 38 
*END

*D_NET *103 0.0124423
*CONN
*I *1539:A2 I *D sky130_fd_sc_hd__o21bai_1
*I *1534:Y O *D sky130_fd_sc_hd__o21ai_1
*CAP
1 *1539:A2 0
2 *1534:Y 0.000312948
3 *103:18 0.000690406
4 *103:10 0.00238728
5 *103:8 0.00200982
6 *103:8 *1534:A1 2.32004e-05
7 *103:8 *1534:A2 0.000179936
8 *103:8 *1534:B1 0.00060907
9 *103:10 *1556:A1 0.000263887
10 *103:10 *104:22 0.000173277
11 *103:10 *128:8 0
12 *103:10 *164:23 2.55642e-05
13 *103:10 *169:49 0.000977281
14 *103:10 *170:22 0
15 *103:10 *184:20 0.000514537
16 *103:10 *222:16 0
17 *103:10 *225:14 0
18 *103:10 *225:24 0
19 *103:10 *227:45 0.00123232
20 *103:18 *1539:A1 9.41704e-05
21 *103:18 *108:14 5.90675e-06
22 *103:18 *164:38 0.00145541
23 *103:18 *193:16 0.000727341
24 *103:18 *222:37 0.000403344
25 *55:14 *103:18 2.49251e-05
26 *55:20 *103:18 1.21972e-05
27 *91:16 *103:10 0.000151933
28 *91:24 *103:10 0.000167587
*RES
1 *1534:Y *103:8 45.2914 
2 *103:8 *103:10 42.4021 
3 *103:10 *103:18 34.0261 
4 *103:18 *1539:A2 23 
*END

*D_NET *104 0.0310828
*CONN
*I *1536:B2 I *D sky130_fd_sc_hd__o22a_1
*I *1535:Y O *D sky130_fd_sc_hd__a21oi_2
*CAP
1 *1536:B2 0
2 *1535:Y 0.000218853
3 *104:30 0.00062987
4 *104:26 0.000990335
5 *104:22 0.00728961
6 *104:12 0.007148
7 *104:12 *201:23 0.000250054
8 *104:22 *111:24 0.000464527
9 *104:22 *120:27 0.00056732
10 *104:22 *144:58 0.000333841
11 *104:22 *161:10 0.000385699
12 *104:22 *164:23 0.000325416
13 *104:22 *167:34 0.000222692
14 *104:22 *167:64 0.000117597
15 *104:22 *170:22 0.000223936
16 *104:22 *174:22 0
17 *104:22 *177:24 0.0032298
18 *104:22 *201:27 0.00050347
19 *104:22 *201:31 0.000215322
20 *104:22 *219:22 0
21 *104:22 *227:45 0.000190108
22 *104:26 *158:45 0.000412569
23 *104:26 *176:28 0.00028355
24 *104:30 *1536:A2 0.000668341
25 *104:30 *105:6 0.00048609
26 *104:30 *136:116 0.000590694
27 *104:30 *168:44 0.000150071
28 *104:30 *176:36 0.000100486
29 *104:30 *176:55 0.00048264
30 *104:30 *181:139 0.000168873
31 *104:30 *186:34 0.00288474
32 *52:24 *104:22 0
33 *63:44 *104:26 0
34 *68:31 *104:22 0.000141925
35 *69:35 *104:12 0.000255904
36 *70:12 *104:22 0.000176479
37 *89:10 *104:22 0.000149069
38 *91:16 *104:22 0.000651686
39 *103:10 *104:22 0.000173277
*RES
1 *1535:Y *104:12 49.6752 
2 *104:12 *104:22 44.636 
3 *104:22 *104:26 23.7725 
4 *104:26 *104:30 34.945 
5 *104:30 *1536:B2 23 
*END

*D_NET *105 0.0046771
*CONN
*I *1538:B1 I *D sky130_fd_sc_hd__a311o_1
*I *1536:X O *D sky130_fd_sc_hd__o22a_1
*CAP
1 *1538:B1 0
2 *1536:X 0.00136065
3 *105:12 0.000112154
4 *105:6 0.00147281
5 *105:6 *1536:A2 0.000546158
6 *105:6 *136:116 0.000585716
7 *105:12 *106:24 4.89546e-05
8 *105:12 *134:134 9.28078e-06
9 *105:12 *178:12 1.67884e-05
10 *48:45 *105:12 3.84954e-05
11 *104:30 *105:6 0.00048609
*RES
1 *1536:X *105:6 44.5843 
2 *105:6 *105:12 32.2579 
3 *105:12 *1538:B1 23 
*END

*D_NET *106 0.0218959
*CONN
*I *1538:C1 I *D sky130_fd_sc_hd__a311o_1
*I *1537:Y O *D sky130_fd_sc_hd__nor2_1
*CAP
1 *1538:C1 0
2 *1537:Y 0.000109829
3 *106:24 0.00634201
4 *106:12 0.00645184
5 *106:12 *1386:B 7.1459e-05
6 *106:24 *1386:B 0.000108147
7 *106:24 *145:24 0.000393165
8 *106:24 *155:20 0.000398637
9 *106:24 *172:32 0.000342844
10 *106:24 *173:33 0.00167335
11 *106:24 *174:24 0.000104065
12 *106:24 *174:47 0.00168227
13 *106:24 *176:24 0
14 *106:24 *178:12 4.89546e-05
15 *106:24 *198:26 0
16 *106:24 *199:27 0.000107392
17 *106:24 *212:22 0
18 *67:24 *106:24 0.00220485
19 *92:16 *106:24 0.00173413
20 *98:10 *106:12 7.39704e-05
21 *105:12 *106:24 4.89546e-05
*RES
1 *1537:Y *106:12 47.1243 
2 *106:12 *106:24 45.186 
3 *106:24 *1538:C1 38 
*END

*D_NET *107 0.0122719
*CONN
*I *1539:B1_N I *D sky130_fd_sc_hd__o21bai_1
*I *1538:X O *D sky130_fd_sc_hd__a311o_1
*CAP
1 *1539:B1_N 0.000664375
2 *1538:X 0.000627232
3 *107:10 0.00223699
4 *107:8 0.00157261
5 *107:6 0.000627232
6 *1539:B1_N *193:56 0.000229126
7 *107:6 *1434:B 5.5792e-05
8 *107:6 *178:8 0.000102389
9 *107:6 *181:131 0.000182213
10 *107:6 *220:34 0.000634945
11 *107:10 *134:117 0.000670499
12 *107:10 *148:46 0.000825751
13 *107:10 *148:60 0.00115558
14 *107:10 *171:20 0.000573346
15 *107:10 *174:47 0.000113006
16 *107:10 *199:27 0.000346203
17 *55:14 *1539:B1_N 0.000261956
18 *57:27 *107:10 2.60152e-05
19 *63:10 *107:10 0.000181226
20 *63:16 *107:10 2.50227e-05
21 *63:44 *107:10 0
22 *80:27 *107:10 0.000674803
23 *81:20 *107:10 0.000485577
*RES
1 *1538:X *107:6 36.0086 
2 *107:6 *107:8 15 
3 *107:8 *107:10 44.8671 
4 *107:10 *1539:B1_N 46.2443 
*END

*D_NET *108 0.0111711
*CONN
*I *1540:B1 I *D sky130_fd_sc_hd__a31o_1
*I *1539:Y O *D sky130_fd_sc_hd__o21bai_1
*CAP
1 *1540:B1 3.81527e-05
2 *1539:Y 0.000873221
3 *108:20 0.000972
4 *108:14 0.00180707
5 *1540:B1 *144:51 2.95526e-05
6 *1540:B1 *218:10 5.5792e-05
7 *1540:B1 *221:8 2.31063e-05
8 *108:14 *193:56 0.00198971
9 *108:14 *209:54 0.000327384
10 *108:20 *144:51 0.00013228
11 *108:20 *151:10 9.22783e-05
12 *108:20 *166:10 0.00122712
13 *108:20 *185:31 0.000137651
14 *108:20 *193:56 4.34559e-05
15 *108:20 *204:38 2.96051e-05
16 *108:20 *204:46 0.000901048
17 *108:20 *209:54 0.000426329
18 *46:10 *108:20 3.21115e-05
19 *55:6 *108:14 0.00165921
20 *55:14 *108:14 6.28966e-05
21 *75:10 *108:20 7.62459e-05
22 *78:22 *108:20 0.000228963
23 *103:18 *108:14 5.90675e-06
*RES
1 *1539:Y *108:14 49.5557 
2 *108:14 *108:20 42.9436 
3 *108:20 *1540:B1 39.0927 
*END

*D_NET *109 0.0173816
*CONN
*I *1543:A I *D sky130_fd_sc_hd__xnor2_2
*I *1541:X O *D sky130_fd_sc_hd__or2b_2
*CAP
1 *1543:A 0.000156565
2 *1541:X 0
3 *109:20 0.00262815
4 *109:18 0.00393761
5 *109:10 0.00222665
6 *109:6 0.000760627
7 *1543:A *110:8 1.06588e-05
8 *1543:A *177:10 2.25825e-05
9 *1543:A *229:14 0
10 *109:10 *1591:A 6.16531e-05
11 *109:10 *209:16 0.00078575
12 *109:10 *225:76 0.00157677
13 *109:18 *155:32 7.74693e-05
14 *109:18 *162:27 0.000226355
15 *109:18 *162:29 1.40281e-05
16 *109:18 *207:21 0.0002837
17 *109:18 *230:18 4.96207e-05
18 *109:20 *111:24 0.000474353
19 *109:20 *121:10 0
20 *109:20 *136:22 0.000707681
21 *109:20 *162:29 0.00212048
22 *109:20 *177:10 0.000353564
23 *109:20 *181:113 0
24 *109:20 *207:10 0.000383754
25 *109:20 *207:21 2.63687e-05
26 *109:20 *229:14 0
27 *40:29 *109:18 0.000305643
28 *82:20 *109:10 0.000191591
*RES
1 *1541:X *109:6 38 
2 *109:6 *109:10 37.6821 
3 *109:10 *109:18 34.8546 
4 *109:18 *109:20 62.6504 
5 *109:20 *1543:A 41.0657 
*END

*D_NET *110 0.00396565
*CONN
*I *1543:B I *D sky130_fd_sc_hd__xnor2_2
*I *1542:Y O *D sky130_fd_sc_hd__nand2_1
*CAP
1 *1543:B 0
2 *1542:Y 0.00154262
3 *110:8 0.00154262
4 *110:8 *199:16 5.56356e-05
5 *1532:A *110:8 0.000814121
6 *1543:A *110:8 1.06588e-05
*RES
1 *1542:Y *110:8 44.8329 
2 *110:8 *1543:B 23 
*END

*D_NET *111 0.0204338
*CONN
*I *1549:A2 I *D sky130_fd_sc_hd__a221o_1
*I *1543:Y O *D sky130_fd_sc_hd__xnor2_2
*CAP
1 *1549:A2 2.49814e-05
2 *1543:Y 5.91905e-05
3 *111:24 0.00626494
4 *111:12 0.00629915
5 *1549:A2 *186:63 2.62943e-05
6 *111:12 *120:10 6.10551e-06
7 *111:12 *177:10 1.27489e-05
8 *111:24 *120:10 0.000136073
9 *111:24 *120:27 0.00190077
10 *111:24 *159:10 0.000537247
11 *111:24 *159:21 0.000148623
12 *111:24 *162:14 0.000190108
13 *111:24 *162:29 0.000694334
14 *111:24 *163:14 0.000293181
15 *111:24 *163:16 0.000762231
16 *111:24 *167:38 0.000224273
17 *111:24 *167:64 0
18 *111:24 *206:35 0.000136141
19 *111:24 *206:43 0.000124574
20 *111:24 *209:10 0
21 *111:24 *219:22 0.000381351
22 *111:24 *229:47 0.000918988
23 *1549:A1 *1549:A2 7.78521e-05
24 *82:20 *111:24 0.000120027
25 *90:10 *111:24 0.000109432
26 *92:16 *111:12 4.62843e-05
27 *104:22 *111:24 0.000464527
28 *109:20 *111:24 0.000474353
*RES
1 *1543:Y *111:12 46.42 
2 *111:12 *111:24 46.7265 
3 *111:24 *1549:A2 38.8596 
*END

*D_NET *112 0.0178385
*CONN
*I *1549:B1 I *D sky130_fd_sc_hd__a221o_1
*I *1544:X O *D sky130_fd_sc_hd__xor2_1
*CAP
1 *1549:B1 9.81844e-05
2 *1544:X 0.000233363
3 *112:10 0.00248661
4 *112:8 0.00262179
5 *1549:B1 *1549:B2 3.11821e-05
6 *1549:B1 *116:30 0.000363347
7 *1549:B1 *186:63 2.15397e-05
8 *1549:B1 *215:6 0.000494338
9 *112:8 *1558:B1 0.00031627
10 *112:10 *1437:B 0.000259337
11 *112:10 *130:12 0.000785699
12 *112:10 *156:22 7.31043e-06
13 *112:10 *156:28 0.000996886
14 *112:10 *164:48 2.22137e-05
15 *112:10 *164:54 0.00165875
16 *112:10 *169:45 0.000506288
17 *112:10 *179:40 7.01678e-05
18 *112:10 *180:19 0.00291188
19 *112:10 *195:16 4.2746e-05
20 *112:10 *195:52 0.000290755
21 *112:10 *209:46 0.000108129
22 *112:10 *222:39 0.0018184
23 *112:10 *222:85 0.00100132
24 *41:38 *112:10 4.38353e-05
25 *69:46 *112:10 5.90738e-05
26 *95:18 *112:10 0.000420293
27 *95:26 *112:10 3.3746e-05
28 *95:30 *112:10 0.000135035
*RES
1 *1544:X *112:8 41.48 
2 *112:8 *112:10 77.6164 
3 *112:10 *1549:B1 43.3857 
*END

*D_NET *113 0.007321
*CONN
*I *1546:B2 I *D sky130_fd_sc_hd__o22a_1
*I *1545:Y O *D sky130_fd_sc_hd__a21oi_1
*CAP
1 *1546:B2 0
2 *1545:Y 0.000215126
3 *113:16 0.00107522
4 *113:10 0.00129035
5 *113:10 *117:20 0.000157857
6 *113:10 *188:115 8.31966e-06
7 *113:16 *114:8 5.82853e-05
8 *113:16 *114:10 0.00224284
9 *113:16 *119:10 0.000320373
10 *113:16 *126:12 0.00136079
11 *113:16 *137:16 5.58003e-05
12 *113:16 *212:22 0.000364511
13 *77:24 *113:16 0.000171529
*RES
1 *1545:Y *113:10 41.9771 
2 *113:10 *113:16 46.755 
3 *113:16 *1546:B2 23 
*END

*D_NET *114 0.0189145
*CONN
*I *1548:B1 I *D sky130_fd_sc_hd__a311o_1
*I *1546:X O *D sky130_fd_sc_hd__o22a_1
*CAP
1 *1548:B1 0
2 *1546:X 8.65852e-05
3 *114:20 7.43639e-05
4 *114:14 0.00229425
5 *114:10 0.00458863
6 *114:8 0.00245533
7 *114:8 *1546:B1 5.3304e-05
8 *114:8 *137:16 5.46902e-05
9 *114:8 *137:26 6.17437e-06
10 *114:8 *196:14 5.56279e-05
11 *114:10 *119:10 4.95487e-06
12 *114:10 *126:12 0.000289805
13 *114:10 *149:87 0.000786112
14 *114:10 *149:91 0.00145724
15 *114:10 *176:10 0.000491538
16 *114:10 *212:22 0.000566635
17 *114:10 *226:44 1.05887e-05
18 *114:10 *228:84 0.00116954
19 *114:14 *141:10 9.77405e-05
20 *114:14 *181:28 9.64943e-05
21 *114:14 *181:59 0.000915177
22 *114:14 *202:35 0.000296004
23 *114:14 *202:44 0.000303342
24 *114:20 *137:90 3.36312e-06
25 *114:20 *170:31 0.000132921
26 *114:20 *187:18 0.00010718
27 *49:18 *114:10 7.84469e-05
28 *53:76 *114:8 0.000137368
29 *75:14 *114:10 0
30 *113:16 *114:8 5.82853e-05
31 *113:16 *114:10 0.00224284
*RES
1 *1546:X *114:8 40.5271 
2 *114:8 *114:10 61.77 
3 *114:10 *114:14 44.2071 
4 *114:14 *114:20 31.9057 
5 *114:20 *1548:B1 23 
*END

*D_NET *115 0.0107795
*CONN
*I *1548:C1 I *D sky130_fd_sc_hd__a311o_1
*I *1547:Y O *D sky130_fd_sc_hd__nor2_1
*CAP
1 *1548:C1 0
2 *1547:Y 0.000440637
3 *115:18 0.000715719
4 *115:12 0.00154215
5 *115:8 0.00126706
6 *115:8 *186:63 0.00126863
7 *115:12 *186:63 0.00043355
8 *115:12 *192:46 0.000782419
9 *115:12 *198:10 9.79925e-05
10 *115:12 *224:31 4.05745e-05
11 *115:18 *116:18 0.00098458
12 *115:18 *142:92 0.000373851
13 *115:18 *142:94 2.26406e-05
14 *115:18 *142:170 1.0092e-05
15 *115:18 *170:31 0.000130283
16 *115:18 *175:10 0.000376242
17 *115:18 *187:24 5.3304e-05
18 *115:18 *187:26 3.39192e-05
19 *115:18 *198:12 0.000207188
20 *115:18 *202:48 0
21 *115:18 *224:41 2.14599e-05
22 *45:80 *115:18 9.58714e-05
23 *61:18 *115:8 0.00018221
24 *61:24 *115:8 0.000570368
25 *61:24 *115:12 0.00112874
*RES
1 *1547:Y *115:8 37.6968 
2 *115:8 *115:12 37.2989 
3 *115:12 *115:18 35.9629 
4 *115:18 *1548:C1 23 
*END

*D_NET *116 0.0129595
*CONN
*I *1549:C1 I *D sky130_fd_sc_hd__a221o_1
*I *1548:X O *D sky130_fd_sc_hd__a311o_1
*CAP
1 *1549:C1 0
2 *1548:X 0.00025172
3 *116:30 0.000342537
4 *116:22 0.00229835
5 *116:20 0.00195582
6 *116:18 0.000564083
7 *116:10 0.000815803
8 *116:10 *1478:B 5.3304e-05
9 *116:10 *149:145 7.13284e-05
10 *116:10 *181:59 8.50457e-05
11 *116:10 *187:18 4.77425e-05
12 *116:10 *196:76 1.74079e-05
13 *116:10 *202:48 8.47124e-05
14 *116:18 *187:18 0.000222041
15 *116:18 *196:76 4.49877e-05
16 *116:18 *198:12 0.000986811
17 *116:22 *1479:B 0.000265028
18 *116:22 *134:27 0.00115737
19 *116:22 *134:33 0.000265028
20 *116:22 *183:70 0.000940225
21 *116:30 *1549:B2 0.000408033
22 *116:30 *180:27 0.000135616
23 *116:30 *186:63 9.32934e-05
24 *116:30 *200:57 3.21898e-05
25 *116:30 *215:6 0.000171765
26 *1549:B1 *116:30 0.000363347
27 *32:52 *116:30 0.000211272
28 *45:80 *116:10 3.17634e-05
29 *53:6 *116:22 5.82853e-05
30 *115:18 *116:18 0.00098458
*RES
1 *1548:X *116:10 42.5364 
2 *116:10 *116:18 46.6543 
3 *116:18 *116:20 15 
4 *116:20 *116:22 39.2121 
5 *116:22 *116:30 40.73 
6 *116:30 *1549:C1 23 
*END

*D_NET *117 0.0159012
*CONN
*I *1551:B I *D sky130_fd_sc_hd__nand2_1
*I *1550:X O *D sky130_fd_sc_hd__a31o_1
*CAP
1 *1551:B 0
2 *1550:X 0.00174531
3 *117:20 0.0014728
4 *117:10 0.00256306
5 *117:8 0.00109026
6 *117:6 0.00174531
7 *117:6 *1592:A 5.3304e-05
8 *117:6 *128:12 0.000649448
9 *117:6 *199:50 4.50767e-05
10 *117:6 *224:8 0.000348905
11 *117:10 *200:53 0.000104065
12 *117:10 *200:57 0.000525876
13 *117:10 *210:22 0.000801429
14 *117:10 *211:56 0.00199986
15 *117:20 *1545:A2 1.59094e-05
16 *117:20 *148:40 0.000508893
17 *117:20 *149:73 8.87746e-06
18 *117:20 *149:87 4.59435e-06
19 *1550:A3 *117:6 0.000136841
20 *32:16 *117:10 0.00153052
21 *32:39 *117:10 0.000217091
22 *33:14 *117:20 0.000175903
23 *113:10 *117:20 0.000157857
*RES
1 *1550:X *117:6 46.0136 
2 *117:6 *117:8 15 
3 *117:8 *117:10 35.3593 
4 *117:10 *117:20 36.1493 
5 *117:20 *1551:B 23 
*END

*D_NET *118 0.0106299
*CONN
*I *1552:C I *D sky130_fd_sc_hd__and3_1
*I *1551:Y O *D sky130_fd_sc_hd__nand2_1
*CAP
1 *1552:C 0.000446504
2 *1551:Y 0.000162548
3 *118:10 0.00203658
4 *118:8 0.00175262
5 *118:8 *141:16 9.41704e-05
6 *118:8 *149:73 5.3793e-05
7 *118:10 *1408:A1 0.000253916
8 *118:10 *134:134 0.000498522
9 *118:10 *135:22 0.000270928
10 *118:10 *135:28 0.00154265
11 *118:10 *141:16 3.46013e-05
12 *118:10 *146:8 0.000800123
13 *118:10 *152:16 1.06693e-05
14 *118:10 *158:14 4.25971e-05
15 *118:10 *178:12 0.00059129
16 *118:10 *178:18 0.000537371
17 *118:10 *211:41 0.000144842
18 *1551:A *118:8 0.000143259
19 *35:18 *118:10 0.000404457
20 *35:33 *118:10 0.000207798
21 *48:28 *118:10 0.000107151
22 *72:10 *1552:C 0.000232909
23 *88:24 *118:10 0.000260566
*RES
1 *1551:Y *118:8 41.48 
2 *118:8 *118:10 44.1629 
3 *118:10 *1552:C 44.6804 
*END

*D_NET *119 0.0136325
*CONN
*I *1560:A I *D sky130_fd_sc_hd__or3_1
*I *1552:X O *D sky130_fd_sc_hd__and3_1
*CAP
1 *1560:A 0
2 *1552:X 0.000721388
3 *119:10 0.00196714
4 *119:8 0.00196714
5 *119:6 0.000721388
6 *119:10 *126:12 0.00197514
7 *119:10 *168:18 4.24364e-05
8 *119:10 *176:28 0.000243503
9 *119:10 *186:26 0.00145509
10 *119:10 *186:28 0.000216818
11 *119:10 *186:32 0.00104606
12 *119:10 *196:24 4.57415e-05
13 *119:10 *212:22 0.000219181
14 *53:70 *119:10 8.36198e-05
15 *72:10 *119:6 0.00135251
16 *75:14 *119:10 0.00108033
17 *77:24 *119:10 0.000169718
18 *113:16 *119:10 0.000320373
19 *114:10 *119:10 4.95487e-06
*RES
1 *1552:X *119:6 37.9143 
2 *119:6 *119:8 15 
3 *119:8 *119:10 54.0229 
4 *119:10 *1560:A 38 
*END

*D_NET *120 0.0273702
*CONN
*I *1554:A_N I *D sky130_fd_sc_hd__and2b_1
*I *1557:B1 I *D sky130_fd_sc_hd__o22a_1
*I *1553:Y O *D sky130_fd_sc_hd__nor2_2
*CAP
1 *1554:A_N 0
2 *1557:B1 0
3 *1553:Y 0
4 *120:35 0.00103199
5 *120:27 0.00254141
6 *120:10 0.00293361
7 *120:8 0.0014242
8 *120:6 0.00231329
9 *120:4 0.00231329
10 *120:6 *173:12 0.00224483
11 *120:6 *219:30 0.000250118
12 *120:6 *219:34 0.000526277
13 *120:10 *144:10 0.00027182
14 *120:10 *163:16 5.15821e-05
15 *120:10 *167:38 0.000824658
16 *120:10 *170:22 0
17 *120:10 *177:10 0
18 *120:10 *201:31 1.02387e-05
19 *120:10 *206:35 0.000194327
20 *120:10 *206:43 0.00166427
21 *120:27 *1524:A2 8.49864e-05
22 *120:27 *131:76 0.000547966
23 *120:27 *144:58 0.000548785
24 *120:27 *159:10 0.000353814
25 *120:27 *163:16 3.53893e-05
26 *120:27 *167:34 3.85415e-05
27 *120:27 *167:38 0.00085039
28 *120:27 *206:35 0.000713532
29 *120:35 *159:10 0
30 *120:35 *159:21 0
31 *120:35 *162:27 0.000199278
32 *120:35 *163:12 3.96156e-05
33 *120:35 *202:31 0
34 *120:35 *207:21 0.00141488
35 *120:35 *229:47 0.000161352
36 *1476:B *120:6 0.000771732
37 *33:14 *120:27 8.36198e-05
38 *85:10 *120:27 0.000320083
39 *104:22 *120:27 0.00056732
40 *111:12 *120:10 6.10551e-06
41 *111:24 *120:10 0.000136073
42 *111:24 *120:27 0.00190077
*RES
1 *1553:Y *120:4 23 
2 *120:4 *120:6 53.505 
3 *120:6 *120:8 15 
4 *120:8 *120:10 37.12 
5 *120:10 *1557:B1 38 
6 *120:10 *120:27 46.8217 
7 *120:27 *120:35 35.5988 
8 *120:35 *1554:A_N 38 
*END

*D_NET *121 0.0140445
*CONN
*I *1555:B1 I *D sky130_fd_sc_hd__a31o_1
*I *1554:X O *D sky130_fd_sc_hd__and2b_1
*CAP
1 *1555:B1 0.000211448
2 *1554:X 7.59455e-05
3 *121:10 0.00251767
4 *121:8 0.00238217
5 *1555:B1 *1555:A1 6.0734e-05
6 *121:8 *230:6 5.42331e-05
7 *121:10 *1465:B1 5.94125e-05
8 *121:10 *136:8 0.000125904
9 *121:10 *136:16 0.000758719
10 *121:10 *136:22 0.00218771
11 *121:10 *148:20 5.31444e-05
12 *121:10 *148:22 4.18957e-05
13 *121:10 *148:24 0.000101965
14 *121:10 *160:12 0
15 *121:10 *193:18 0.000236495
16 *121:10 *202:14 0.000144795
17 *121:10 *204:10 0.00336001
18 *121:10 *204:27 0.000350168
19 *121:10 *207:21 0.000310732
20 *121:10 *219:22 0.00101138
21 *109:20 *121:10 0
*RES
1 *1554:X *121:8 39.0979 
2 *121:8 *121:10 71.63 
3 *121:10 *1555:B1 40.9 
*END

*D_NET *122 0.0146014
*CONN
*I *1560:B I *D sky130_fd_sc_hd__or3_1
*I *1555:X O *D sky130_fd_sc_hd__a31o_1
*CAP
1 *1560:B 0
2 *1555:X 0.00101857
3 *122:22 0.00198429
4 *122:20 0.00324629
5 *122:16 0.00160607
6 *122:8 0.00136264
7 *122:16 *128:8 8.36198e-05
8 *122:16 *184:14 0.000346755
9 *122:16 *222:16 3.88725e-05
10 *122:20 *138:16 4.66576e-05
11 *122:20 *193:8 0.000440686
12 *122:20 *193:16 5.28551e-05
13 *122:20 *206:56 8.22387e-05
14 *122:22 *157:14 0.00241011
15 *53:30 *122:20 0.00057694
16 *70:16 *122:20 0.00103498
17 *76:26 *122:20 9.40736e-05
18 *81:32 *122:20 0.000175738
*RES
1 *1555:X *122:8 49.5793 
2 *122:8 *122:16 35.1579 
3 *122:16 *122:20 47.8943 
4 *122:20 *122:22 27.3014 
5 *122:22 *1560:B 23 
*END

*D_NET *123 0.0101781
*CONN
*I *1559:A3 I *D sky130_fd_sc_hd__a31o_1
*I *1556:X O *D sky130_fd_sc_hd__a21o_1
*CAP
1 *1559:A3 0.00122975
2 *1556:X 0.00113074
3 *123:12 0.00154217
4 *123:6 0.00144316
5 *1559:A3 *124:6 8.41787e-05
6 *1559:A3 *130:73 0.00198691
7 *1559:A3 *133:26 6.70361e-05
8 *1559:A3 *158:33 0.000218476
9 *123:6 *1556:A1 0.000381942
10 *123:6 *153:22 0.000739727
11 *123:6 *192:32 5.7973e-05
12 *123:12 *183:176 1.01436e-05
13 *53:30 *123:12 0.000371862
14 *71:10 *123:12 0.000765683
15 *76:16 *123:12 0.000148302
*RES
1 *1556:X *123:6 37.9143 
2 *123:6 *123:12 40.3571 
3 *123:12 *1559:A3 48.3957 
*END

*D_NET *124 0.00815416
*CONN
*I *1558:B1 I *D sky130_fd_sc_hd__a21oi_1
*I *1557:X O *D sky130_fd_sc_hd__o22a_1
*CAP
1 *1558:B1 0.000873385
2 *1557:X 0.00125614
3 *124:12 0.0012793
4 *124:6 0.00166205
5 *1558:B1 *1544:B 0.00083489
6 *1558:B1 *1558:A1 3.07432e-05
7 *1558:B1 *125:8 1.35999e-05
8 *1558:B1 *164:54 2.193e-05
9 *1558:B1 *226:27 0.000207851
10 *124:6 *1557:B2 0.000388126
11 *124:6 *130:73 6.70361e-05
12 *124:6 *133:26 2.81406e-06
13 *124:6 *183:180 0.000223326
14 *124:12 *130:83 0.000135616
15 *124:12 *179:42 0
16 *124:12 *195:44 0.000343979
17 *124:12 *196:8 9.03024e-06
18 *124:12 *210:54 0.000236539
19 *124:12 *222:31 0.000167355
20 *1559:A3 *124:6 8.41787e-05
21 *112:8 *1558:B1 0.00031627
*RES
1 *1557:X *124:6 39.3436 
2 *124:6 *124:12 40.005 
3 *124:12 *1558:B1 40.6693 
*END

*D_NET *125 0.003406
*CONN
*I *1559:B1 I *D sky130_fd_sc_hd__a31o_1
*I *1558:Y O *D sky130_fd_sc_hd__a21oi_1
*CAP
1 *1559:B1 0.000398542
2 *1558:Y 0.000441583
3 *125:8 0.000840125
4 *1559:B1 *140:24 3.4299e-05
5 *1559:B1 *168:30 0.000242151
6 *1559:B1 *168:36 0
7 *1559:B1 *186:26 0.000597366
8 *1559:B1 *186:28 0.000160128
9 *1559:B1 *227:81 0.000233332
10 *125:8 *1558:A1 0.000427255
11 *125:8 *226:27 1.76149e-05
12 *1558:B1 *125:8 1.35999e-05
*RES
1 *1558:Y *125:8 43.8621 
2 *125:8 *1559:B1 48.3571 
*END

*D_NET *126 0.00582591
*CONN
*I *1560:C I *D sky130_fd_sc_hd__or3_1
*I *1559:X O *D sky130_fd_sc_hd__a31o_1
*CAP
1 *1560:C 0
2 *1559:X 8.40509e-05
3 *126:12 0.000856115
4 *126:8 0.000940166
5 *126:8 *158:33 9.5877e-05
6 *126:12 *212:22 0.000223973
7 *113:16 *126:12 0.00136079
8 *114:10 *126:12 0.000289805
9 *119:10 *126:12 0.00197514
*RES
1 *1559:X *126:8 39.0979 
2 *126:8 *126:12 42.26 
3 *126:12 *1560:C 23 
*END

*D_NET *127 0.00652216
*CONN
*I *1561:A I *D sky130_fd_sc_hd__clkbuf_1
*I *1560:X O *D sky130_fd_sc_hd__or3_1
*CAP
1 *1561:A 0
2 *1560:X 0.00128576
3 *127:14 0.000533802
4 *127:6 0.00181956
5 *127:6 *181:12 0.00140367
6 *127:14 *136:96 0.000377651
7 *127:14 *183:18 0.000379807
8 *127:14 *188:69 0.000721914
*RES
1 *1560:X *127:6 40.2964 
2 *127:6 *127:14 43.3193 
3 *127:14 *1561:A 23 
*END

*D_NET *128 0.024395
*CONN
*I *1441:B I *D sky130_fd_sc_hd__nand2_2
*I *1386:A I *D sky130_fd_sc_hd__nor2_4
*I *1384:Y O *D sky130_fd_sc_hd__inv_2
*CAP
1 *1441:B 0.000168601
2 *1386:A 0
3 *1384:Y 0
4 *128:27 0.00100257
5 *128:12 0.00132438
6 *128:8 0.00308319
7 *128:6 0.00259278
8 *1441:B *207:40 0.000125341
9 *1441:B *208:44 0.000391698
10 *128:8 *130:97 0
11 *128:8 *133:20 0.000495934
12 *128:8 *133:26 0.000207023
13 *128:8 *167:34 0.000127524
14 *128:8 *184:20 0
15 *128:8 *190:34 0.00126216
16 *128:8 *222:16 9.22316e-05
17 *128:8 *225:14 0.000792585
18 *128:8 *225:24 0.000195248
19 *128:8 *230:10 0.000225139
20 *128:8 *230:18 0.00123289
21 *128:8 *230:20 0.0041252
22 *128:12 *1592:A 5.3304e-05
23 *128:12 *130:12 0.000308039
24 *128:12 *199:50 0.00127102
25 *128:12 *224:8 0.000308039
26 *128:27 *129:36 0.000100349
27 *128:27 *130:12 0.000178517
28 *128:27 *130:29 0.000163361
29 *128:27 *183:78 2.37243e-05
30 *128:27 *224:8 0.000168411
31 *33:45 *128:27 0.00054962
32 *40:14 *128:8 0.00142153
33 *52:24 *128:8 0.000246133
34 *52:34 *128:8 1.94418e-05
35 *53:24 *128:8 0.000379916
36 *61:18 *128:27 0.000362333
37 *67:24 *128:27 0.000105443
38 *98:10 *128:27 0.000558225
39 *103:10 *128:8 0
40 *117:6 *128:12 0.000649448
41 *122:16 *128:8 8.36198e-05
*RES
1 *1384:Y *128:6 38 
2 *128:6 *128:8 80.7857 
3 *128:8 *128:12 32.7729 
4 *128:12 *1386:A 23 
5 *128:12 *128:27 35.3414 
6 *128:27 *1441:B 42.4329 
*END

*D_NET *129 0.00981
*CONN
*I *1438:B I *D sky130_fd_sc_hd__or2_1
*I *1518:B1 I *D sky130_fd_sc_hd__o211ai_2
*I *1479:B I *D sky130_fd_sc_hd__and3_2
*I *1386:B I *D sky130_fd_sc_hd__nor2_4
*I *1385:X O *D sky130_fd_sc_hd__or2_2
*CAP
1 *1438:B 0
2 *1518:B1 0
3 *1479:B 0.000202871
4 *1386:B 0.000321306
5 *1385:X 0.000296635
6 *129:46 0.000478712
7 *129:36 0.00105654
8 *129:10 0.000627584
9 *129:8 0.000977871
10 *1386:B *148:10 0.000597817
11 *1386:B *199:50 7.43624e-05
12 *1386:B *224:8 0.000142636
13 *129:8 *1547:A 0.000302325
14 *129:8 *209:85 0.000568443
15 *129:10 *148:10 0.000209143
16 *129:10 *183:78 0.000160125
17 *129:36 *148:10 0.00110778
18 *129:36 *183:78 2.45092e-05
19 *129:36 *210:121 0.000186147
20 *129:46 *1518:A2 1.7992e-05
21 *129:46 *137:165 9.84794e-05
22 *129:46 *148:10 4.84916e-05
23 *129:46 *180:27 0
24 *129:46 *196:122 8.25833e-05
25 *129:46 *200:57 0
26 *129:46 *210:121 5.3304e-05
27 *1533:A *129:46 2.32004e-05
28 *60:41 *129:46 0.000309995
29 *61:18 *129:8 4.05745e-05
30 *61:18 *129:36 0
31 *61:18 *129:46 6.36937e-05
32 *61:24 *129:8 0.000821282
33 *98:10 *1386:B 0.000255858
34 *98:10 *129:10 1.79668e-05
35 *102:6 *129:46 9.67842e-05
36 *106:12 *1386:B 7.1459e-05
37 *106:24 *1386:B 0.000108147
38 *116:22 *1479:B 0.000265028
39 *128:27 *129:36 0.000100349
*RES
1 *1385:X *129:8 48.15 
2 *129:8 *129:10 2.96214 
3 *129:10 *1386:B 47.8186 
4 *129:10 *1479:B 41.5007 
5 *129:8 *129:36 30.2871 
6 *129:36 *129:46 40.0879 
7 *129:46 *1518:B1 23 
8 *129:36 *1438:B 23 
*END

*D_NET *130 0.0473294
*CONN
*I *1517:A I *D sky130_fd_sc_hd__or2_1
*I *1515:A1 I *D sky130_fd_sc_hd__a21bo_1
*I *1525:B I *D sky130_fd_sc_hd__and3b_1
*I *1559:A2 I *D sky130_fd_sc_hd__a31o_1
*I *1504:A1 I *D sky130_fd_sc_hd__a31o_1
*I *1481:A1 I *D sky130_fd_sc_hd__a211o_1
*I *1534:B1 I *D sky130_fd_sc_hd__o21ai_1
*I *1549:B2 I *D sky130_fd_sc_hd__a221o_1
*I *1386:Y O *D sky130_fd_sc_hd__nor2_4
*CAP
1 *1517:A 0
2 *1515:A1 0
3 *1525:B 1.91983e-05
4 *1559:A2 0
5 *1504:A1 0
6 *1481:A1 0.000375462
7 *1534:B1 0.000380068
8 *1549:B2 0.000122864
9 *1386:Y 0
10 *130:165 0.00150789
11 *130:154 0.0024782
12 *130:131 0.00270716
13 *130:99 0.00075553
14 *130:97 0.00103202
15 *130:89 0.00123491
16 *130:83 0.000365074
17 *130:73 0.00150361
18 *130:67 0.00471048
19 *130:51 0.00522559
20 *130:43 0.00247109
21 *130:33 0.00322014
22 *130:29 0.00097271
23 *130:12 0.000660245
24 *130:4 0.000622163
25 *1481:A1 *191:16 0.000348519
26 *1534:B1 *1534:A1 9.41704e-05
27 *1534:B1 *191:16 0.000580599
28 *1549:B2 *186:63 0.00024797
29 *130:12 *199:50 0.00051329
30 *130:12 *224:8 2.46906e-05
31 *130:43 *165:16 0.000479394
32 *130:43 *169:20 0.00131075
33 *130:43 *173:41 0.000347063
34 *130:43 *211:70 1.01436e-05
35 *130:51 *222:45 0.000502841
36 *130:67 *1559:A1 1.59094e-05
37 *130:67 *137:43 0.000171752
38 *130:67 *158:33 5.42515e-05
39 *130:67 *186:18 0.00012381
40 *130:67 *205:78 0
41 *130:73 *133:40 5.74016e-05
42 *130:73 *158:33 2.18409e-05
43 *130:73 *210:54 0.000260984
44 *130:83 *184:14 9.41704e-05
45 *130:83 *210:54 0.000127993
46 *130:89 *183:176 0.000397001
47 *130:89 *206:62 0.00045853
48 *130:97 *219:26 0.000742654
49 *130:97 *225:64 0.000217236
50 *130:97 *227:21 0.000267464
51 *130:97 *230:20 0
52 *130:131 *173:33 4.31595e-05
53 *130:154 *136:90 2.4505e-05
54 *130:154 *143:26 4.02281e-06
55 *130:154 *167:24 0
56 *130:154 *169:20 0
57 *130:154 *173:33 0.000114046
58 *130:154 *188:128 9.86551e-06
59 *130:154 *227:108 5.58873e-06
60 *130:165 *1448:B 0.000100607
61 *130:165 *169:20 0.000191157
62 *130:165 *209:102 0.000210112
63 *1480:C *130:97 6.08242e-05
64 *1504:A2 *130:89 1.24376e-05
65 *1504:A3 *130:89 4.16015e-05
66 *1549:B1 *1549:B2 3.11821e-05
67 *1559:A3 *130:73 0.00198691
68 *32:45 *130:33 2.812e-05
69 *34:12 *130:67 2.00789e-05
70 *35:63 *1525:B 5.58873e-06
71 *35:63 *130:43 3.0657e-05
72 *36:16 *130:43 9.41704e-05
73 *38:6 *130:33 0.00122831
74 *38:14 *130:33 0.000309001
75 *38:48 *130:33 0.000130971
76 *38:48 *130:43 7.81176e-05
77 *38:48 *130:165 1.12487e-05
78 *41:38 *130:12 1.142e-05
79 *42:14 *130:33 0.000642061
80 *43:30 *130:43 0
81 *44:20 *130:43 4.85126e-05
82 *44:31 *130:165 0
83 *48:28 *130:165 9.58913e-05
84 *49:18 *130:51 0
85 *52:24 *130:154 0
86 *52:34 *130:97 0.000300824
87 *53:38 *130:97 1.55006e-05
88 *60:16 *130:165 0
89 *60:35 *130:165 0
90 *69:46 *130:12 0.000403703
91 *77:10 *130:89 0.000202372
92 *82:8 *130:97 3.97293e-05
93 *88:24 *130:43 0.000102381
94 *88:24 *130:165 0.000121294
95 *94:16 *1525:B 7.57281e-06
96 *97:18 *130:73 0
97 *98:10 *130:29 7.56417e-05
98 *103:8 *1534:B1 0.00060907
99 *112:10 *130:12 0.000785699
100 *116:30 *1549:B2 0.000408033
101 *124:6 *130:73 6.70361e-05
102 *124:12 *130:83 0.000135616
103 *128:8 *130:97 0
104 *128:12 *130:12 0.000308039
105 *128:27 *130:12 0.000178517
106 *128:27 *130:29 0.000163361
*RES
1 *1386:Y *130:4 23 
2 *130:4 *130:12 47.2757 
3 *130:12 *1549:B2 28.5566 
4 *130:4 *130:29 32.2579 
5 *130:29 *130:33 34.6786 
6 *130:33 *130:43 49.5232 
7 *130:43 *130:51 19.0035 
8 *130:51 *130:67 41.5745 
9 *130:67 *130:73 41.68 
10 *130:73 *130:83 48.0036 
11 *130:83 *130:89 7.45714 
12 *130:89 *130:97 38.0964 
13 *130:97 *130:99 15 
14 *130:99 *1534:B1 35.5321 
15 *130:99 *1481:A1 31.41 
16 *130:89 *1504:A1 23 
17 *130:67 *1559:A2 23 
18 *130:51 *130:131 8.35653 
19 *130:131 *1525:B 46.3211 
20 *130:131 *130:154 28.3387 
21 *130:154 *1515:A1 23 
22 *130:33 *130:165 42.55 
23 *130:165 *1517:A 23 
*END

*D_NET *131 0.0569283
*CONN
*I *1426:A I *D sky130_fd_sc_hd__and3_2
*I *1527:A I *D sky130_fd_sc_hd__nor2_1
*I *1458:B1 I *D sky130_fd_sc_hd__o21a_2
*I *1419:C I *D sky130_fd_sc_hd__and4_2
*I *1523:A1 I *D sky130_fd_sc_hd__o22a_1
*I *1459:A I *D sky130_fd_sc_hd__or3_4
*I *1388:A I *D sky130_fd_sc_hd__nand2_2
*I *1524:A2 I *D sky130_fd_sc_hd__a22o_1
*I *1526:A1 I *D sky130_fd_sc_hd__a31o_1
*I *1522:A1 I *D sky130_fd_sc_hd__a21oi_2
*I *1387:X O *D sky130_fd_sc_hd__buf_4
*CAP
1 *1426:A 0.000265517
2 *1527:A 2.01555e-05
3 *1458:B1 0
4 *1419:C 0
5 *1523:A1 3.0992e-05
6 *1459:A 0
7 *1388:A 0
8 *1524:A2 0.000538498
9 *1526:A1 0
10 *1522:A1 0
11 *1387:X 0
12 *131:148 0.000827217
13 *131:121 0.00198594
14 *131:119 0.0028197
15 *131:101 0.000143368
16 *131:95 0.000541409
17 *131:76 0.00164023
18 *131:74 0.00209197
19 *131:70 0.00155402
20 *131:62 0.00163426
21 *131:60 0.00180036
22 *131:58 0.00132091
23 *131:54 0.00162071
24 *131:48 0.0010046
25 *131:44 0.00118366
26 *131:33 0.000433624
27 *131:25 0.00288762
28 *131:23 0.002454
29 *131:16 0.000911823
30 *131:8 0.0013489
31 *131:6 0.00153068
32 *1426:A *1410:A2 7.59794e-05
33 *1426:A *1410:A3 2.64616e-05
34 *1426:A *146:39 3.50185e-05
35 *1426:A *149:108 5.61255e-06
36 *1426:A *189:10 6.533e-05
37 *1523:A1 *208:6 5.40337e-05
38 *1524:A2 *1524:B1 1.97491e-05
39 *1524:A2 *1524:B2 2.02872e-05
40 *1524:A2 *142:49 9.66585e-05
41 *1524:A2 *144:58 8.27856e-05
42 *1524:A2 *148:30 0.000157652
43 *1527:A *183:22 5.55743e-06
44 *131:8 *134:107 0
45 *131:8 *188:18 0
46 *131:8 *217:10 0.000312088
47 *131:16 *1522:B1 0.000102551
48 *131:16 *136:106 0
49 *131:16 *188:18 0
50 *131:16 *217:10 0.00032023
51 *131:25 *135:6 0.00149502
52 *131:33 *133:54 0.000273273
53 *131:33 *199:10 0.000268221
54 *131:33 *201:49 0.000463789
55 *131:44 *1500:B 0
56 *131:44 *134:107 0
57 *131:44 *146:39 0.000136743
58 *131:44 *170:18 0.000127754
59 *131:44 *187:26 0.000169674
60 *131:44 *217:10 0.000387892
61 *131:44 *227:104 0.000108943
62 *131:44 *228:64 0
63 *131:48 *189:10 0.000200779
64 *131:54 *141:26 0.000159368
65 *131:58 *149:71 0.000308769
66 *131:58 *166:10 0.00186579
67 *131:60 *183:22 0.000263502
68 *131:62 *183:22 4.05745e-05
69 *131:62 *183:28 0.00100199
70 *131:70 *142:28 0.000239712
71 *131:74 *204:27 0.00135662
72 *131:76 *144:58 0.00167873
73 *131:76 *159:10 0.000324869
74 *131:95 *148:30 0.000548928
75 *131:119 *1416:A 3.97382e-05
76 *131:119 *1416:B 9.2891e-05
77 *131:119 *1520:A1 9.77405e-05
78 *131:119 *144:58 0.000166775
79 *131:119 *159:10 4.6955e-05
80 *131:119 *160:8 1.24365e-05
81 *131:119 *183:34 0.000131863
82 *131:121 *149:22 0.00134804
83 *131:121 *186:71 0
84 *131:121 *203:25 0
85 *131:148 *1457:B1 0.000191255
86 *131:148 *1592:A 1.93308e-05
87 *131:148 *142:60 6.80048e-05
88 *131:148 *142:71 0.000161486
89 *131:148 *201:71 2.80822e-05
90 *131:148 *204:27 0.000254663
91 *131:148 *204:34 0.000102389
92 *131:148 *223:10 0.000289907
93 *1459:C *131:95 9.58714e-05
94 *1526:B1 *131:33 0.000187067
95 *30:14 *1524:A2 6.63793e-06
96 *30:14 *131:95 0.000889177
97 *30:33 *131:62 0.000523246
98 *30:33 *131:70 0.000137368
99 *31:14 *131:70 5.3304e-05
100 *31:14 *131:148 0
101 *31:20 *131:70 9.64943e-05
102 *32:8 *131:62 0.000316066
103 *33:8 *131:95 0.000108848
104 *39:20 *131:101 8.78333e-05
105 *46:10 *131:58 0.00250918
106 *47:39 *1426:A 7.29358e-05
107 *47:39 *131:48 0.000198548
108 *49:55 *131:54 8.95935e-05
109 *51:14 *131:25 0.000899482
110 *55:31 *131:148 0
111 *56:52 *131:70 6.5704e-05
112 *56:58 *131:101 0
113 *63:16 *131:33 0.000514777
114 *68:16 *131:74 0.00110785
115 *68:16 *131:148 0.000353638
116 *78:22 *131:58 0.000289083
117 *81:20 *131:33 0.000265999
118 *85:10 *131:76 0.0001446
119 *93:10 *1523:A1 5.40337e-05
120 *93:10 *131:121 0.000235823
121 *94:6 *1524:A2 1.83076e-05
122 *97:8 *131:62 0.000531213
123 *120:27 *1524:A2 8.49864e-05
124 *120:27 *131:76 0.000547966
*RES
1 *1387:X *131:6 38 
2 *131:6 *131:8 8.94857 
3 *131:8 *131:16 32.0686 
4 *131:16 *1522:A1 23 
5 *131:8 *131:23 15 
6 *131:23 *131:25 35.4007 
7 *131:25 *131:33 46.1986 
8 *131:33 *1526:A1 23 
9 *131:6 *131:44 36.8329 
10 *131:44 *131:48 17.7861 
11 *131:48 *131:54 17.5157 
12 *131:54 *131:58 49.1268 
13 *131:58 *131:60 5.86214 
14 *131:60 *131:62 30.16 
15 *131:62 *131:70 35.365 
16 *131:70 *131:74 30.3907 
17 *131:74 *131:76 22.6821 
18 *131:76 *1524:A2 45.9129 
19 *131:76 *131:95 26.6 
20 *131:95 *131:101 32.61 
21 *131:101 *1388:A 23 
22 *131:95 *1459:A 23 
23 *131:74 *131:119 44.79 
24 *131:119 *131:121 42.7543 
25 *131:121 *1523:A1 39.0979 
26 *131:70 *131:148 47.3171 
27 *131:148 *1419:C 23 
28 *131:62 *1458:B1 23 
29 *131:60 *1527:A 23.4971 
30 *131:48 *1426:A 42.5054 
*END

*D_NET *132 0.0148835
*CONN
*I *1403:A I *D sky130_fd_sc_hd__xnor2_4
*I *1388:Y O *D sky130_fd_sc_hd__nand2_2
*CAP
1 *1403:A 0
2 *1388:Y 0.000210423
3 *132:20 6.1391e-05
4 *132:14 0.00497669
5 *132:12 0.0049153
6 *132:10 0.000210423
7 *132:10 *181:87 0
8 *132:10 *207:8 9.79925e-05
9 *132:14 *137:53 0.000411214
10 *132:14 *188:69 0.000215421
11 *132:20 *146:18 0.000165304
12 *132:20 *192:28 0.000165304
13 *30:14 *132:14 0.00311193
14 *31:36 *132:10 8.4047e-05
15 *39:20 *132:10 0.000106354
16 *94:8 *132:14 0.000151691
*RES
1 *1388:Y *132:10 42.4121 
2 *132:10 *132:12 15 
3 *132:12 *132:14 63.51 
4 *132:14 *132:20 32.2579 
5 *132:20 *1403:A 23 
*END

*D_NET *133 0.0629173
*CONN
*I *1523:A2 I *D sky130_fd_sc_hd__o22a_1
*I *1399:A1 I *D sky130_fd_sc_hd__a22oi_4
*I *1395:B2 I *D sky130_fd_sc_hd__a22o_1
*I *1457:B1 I *D sky130_fd_sc_hd__a21oi_1
*I *1419:D I *D sky130_fd_sc_hd__and4_2
*I *1524:B1 I *D sky130_fd_sc_hd__a22o_1
*I *1526:A2 I *D sky130_fd_sc_hd__a31o_1
*I *1456:B I *D sky130_fd_sc_hd__and3_1
*I *1391:A I *D sky130_fd_sc_hd__nand2_2
*I *1522:A2 I *D sky130_fd_sc_hd__a21oi_2
*I *1389:X O *D sky130_fd_sc_hd__buf_4
*CAP
1 *1523:A2 0
2 *1399:A1 0
3 *1395:B2 0
4 *1457:B1 9.88938e-05
5 *1419:D 0
6 *1524:B1 8.76017e-05
7 *1526:A2 0
8 *1456:B 0.000707556
9 *1391:A 2.34823e-05
10 *1522:A2 0
11 *1389:X 0.000246312
12 *133:179 0.000661294
13 *133:168 0.00207507
14 *133:164 0.00216097
15 *133:158 0.000517509
16 *133:150 0.00203336
17 *133:146 0.0027648
18 *133:137 0.00110318
19 *133:117 0.000607017
20 *133:88 0.00151839
21 *133:86 0.000929683
22 *133:75 0.000194897
23 *133:68 0.000384416
24 *133:60 0.000897942
25 *133:58 0.00292561
26 *133:54 0.00266256
27 *133:44 0.000289628
28 *133:40 0.0010732
29 *133:26 0.00239915
30 *133:20 0.00253361
31 *133:18 0.001825
32 *133:12 0.00113626
33 *1456:B *1456:A 4.96303e-05
34 *1457:B1 *201:71 0.000119153
35 *1524:B1 *142:49 2.64616e-05
36 *133:12 *1535:A1 6.76547e-05
37 *133:12 *201:23 0.000139352
38 *133:12 *206:91 0.000150954
39 *133:18 *1535:A1 2.41047e-05
40 *133:18 *167:64 0.000116327
41 *133:18 *188:96 4.17929e-05
42 *133:18 *230:10 9.59267e-05
43 *133:20 *167:64 0.000226702
44 *133:20 *230:10 3.69517e-05
45 *133:20 *230:18 0.00123781
46 *133:26 *1557:B2 0.000100283
47 *133:26 *183:180 0.000270241
48 *133:26 *188:96 7.20786e-05
49 *133:26 *190:34 0.00116843
50 *133:40 *190:28 1.8623e-05
51 *133:40 *210:54 0
52 *133:40 *227:21 0
53 *133:40 *227:39 0.000224375
54 *133:44 *181:115 0.000358906
55 *133:44 *201:49 9.588e-06
56 *133:54 *179:42 4.80733e-05
57 *133:54 *201:43 1.14154e-05
58 *133:54 *201:49 0.000315488
59 *133:60 *1587:A 0.000144501
60 *133:60 *135:6 0.00020832
61 *133:60 *213:30 0.00137838
62 *133:68 *134:150 2.55642e-05
63 *133:68 *134:156 0.000862772
64 *133:68 *188:18 0
65 *133:75 *135:6 2.79662e-05
66 *133:75 *213:30 0.000139352
67 *133:86 *213:30 0.000228001
68 *133:88 *213:32 0.0027935
69 *133:117 *201:71 0.000897269
70 *133:137 *1535:A1 6.48097e-05
71 *133:137 *134:56 0.000196754
72 *133:137 *225:84 0.000143759
73 *133:146 *208:10 0
74 *133:146 *225:84 1.63599e-05
75 *133:146 *225:97 0.000429249
76 *133:150 *149:48 9.87468e-05
77 *133:150 *225:97 0.00199937
78 *133:158 *1518:A2 0
79 *133:158 *137:131 4.21457e-05
80 *133:158 *137:148 0.000107748
81 *133:158 *137:165 0
82 *133:158 *149:48 7.44354e-05
83 *133:158 *149:61 9.24795e-06
84 *133:164 *196:114 2.76611e-06
85 *133:168 *1399:A2 1.23353e-05
86 *133:168 *155:20 0.00012408
87 *133:168 *225:107 0.00290302
88 *133:179 *208:6 0.00158038
89 *133:179 *208:10 0
90 out[6] *133:68 2.26497e-05
91 *1510:C *133:40 3.70094e-05
92 *1524:A2 *1524:B1 1.97491e-05
93 *1559:A3 *133:26 6.70361e-05
94 *30:14 *1524:B1 0.000138607
95 *41:10 *133:18 0.000155634
96 *41:10 *133:20 0.001109
97 *41:10 *133:26 0.000504796
98 *41:27 *133:18 0.00021039
99 *50:12 *133:68 0.00048967
100 *51:14 *133:58 0.000230991
101 *51:14 *133:60 0.00035761
102 *53:24 *133:18 0.000520913
103 *53:24 *133:20 0.000144891
104 *53:24 *133:137 0.000164502
105 *53:30 *133:40 9.00882e-05
106 *53:107 *133:137 0.000207512
107 *53:126 *133:137 0.00022274
108 *62:10 *133:88 0.00186854
109 *63:16 *133:44 0.000403011
110 *63:16 *133:54 1.10658e-05
111 *63:33 *133:40 0.000212546
112 *67:12 *133:158 1.14452e-05
113 *69:35 *133:12 9.84851e-05
114 *71:8 *133:12 0.000180224
115 *89:10 *133:137 0
116 *89:10 *133:146 0
117 *89:10 *133:179 0
118 *93:10 *133:179 8.17242e-05
119 *97:18 *133:40 0.0011347
120 *100:18 *133:58 0.000996807
121 *100:24 *133:58 0.000698697
122 *124:6 *133:26 2.81406e-06
123 *128:8 *133:20 0.000495934
124 *128:8 *133:26 0.000207023
125 *130:73 *133:40 5.74016e-05
126 *131:33 *133:54 0.000273273
127 *131:148 *1457:B1 0.000191255
*RES
1 *1389:X *133:12 44.4525 
2 *133:12 *133:18 9.43536 
3 *133:18 *133:20 31.1336 
4 *133:20 *133:26 44.7457 
5 *133:26 *133:40 47.4488 
6 *133:40 *133:44 19.4329 
7 *133:44 *133:54 35.8829 
8 *133:54 *133:58 35.8979 
9 *133:58 *133:60 15.8671 
10 *133:60 *133:68 42.3871 
11 *133:68 *1522:A2 23 
12 *133:60 *133:75 1.57429 
13 *133:75 *1391:A 23.4971 
14 *133:75 *133:86 18.0036 
15 *133:86 *133:88 37.12 
16 *133:88 *1456:B 45.7679 
17 *133:44 *1526:A2 23 
18 *133:20 *1524:B1 40.0714 
19 *133:18 *133:117 25.15 
20 *133:117 *1419:D 23 
21 *133:117 *1457:B1 26.0243 
22 *133:12 *133:137 14.9246 
23 *133:137 *1395:B2 38 
24 *133:137 *133:146 12.1179 
25 *133:146 *133:150 40.3957 
26 *133:150 *133:158 36.815 
27 *133:158 *133:164 31.2014 
28 *133:164 *133:168 34.22 
29 *133:168 *1399:A1 23 
30 *133:146 *133:179 34.5543 
31 *133:179 *1523:A2 23 
*END

*D_NET *134 0.0478589
*CONN
*I *1391:B I *D sky130_fd_sc_hd__nand2_2
*I *1536:A1 I *D sky130_fd_sc_hd__o22a_1
*I *1408:B1 I *D sky130_fd_sc_hd__a22o_1
*I *1538:A1 I *D sky130_fd_sc_hd__a311o_1
*I *1455:B1 I *D sky130_fd_sc_hd__o21ai_4
*I *1428:A I *D sky130_fd_sc_hd__nand2_2
*I *1537:A I *D sky130_fd_sc_hd__nor2_1
*I *1395:A1 I *D sky130_fd_sc_hd__a22o_1
*I *1535:A1 I *D sky130_fd_sc_hd__a21oi_2
*I *1462:A I *D sky130_fd_sc_hd__or3_1
*I *1390:X O *D sky130_fd_sc_hd__buf_4
*CAP
1 *1391:B 0
2 *1536:A1 0
3 *1408:B1 0
4 *1538:A1 0
5 *1455:B1 0
6 *1428:A 0
7 *1537:A 0
8 *1395:A1 0
9 *1535:A1 0.00028665
10 *1462:A 2.70566e-05
11 *1390:X 0.000368002
12 *134:156 0.00060176
13 *134:150 0.0010283
14 *134:134 0.00055043
15 *134:117 0.00108546
16 *134:111 0.00166892
17 *134:109 0.00102267
18 *134:107 0.00259238
19 *134:93 0.00243284
20 *134:76 0.00118257
21 *134:56 0.000638838
22 *134:33 0.00200007
23 *134:29 0.00109647
24 *134:27 0.00151944
25 *134:23 0.00348013
26 *134:12 0.0017532
27 *134:6 0.00255078
28 *1462:A *1462:B 6.17437e-06
29 *1535:A1 *1535:A2 2.30292e-05
30 *1535:A1 *1535:B1 0.000117071
31 *1535:A1 *136:44 2.3351e-05
32 *1535:A1 *188:96 3.47781e-05
33 *134:6 *222:53 0.000437703
34 *134:12 *137:73 0.00044609
35 *134:12 *142:94 0.000272233
36 *134:12 *150:20 0
37 *134:12 *198:26 8.72141e-05
38 *134:12 *222:53 1.24376e-05
39 *134:23 *150:20 0
40 *134:23 *150:27 0
41 *134:23 *198:12 0.000628442
42 *134:23 *198:26 1.42262e-05
43 *134:27 *183:70 0.000937737
44 *134:27 *208:67 0.00156238
45 *134:33 *1479:A 0.000304656
46 *134:33 *180:23 0.000151478
47 *134:56 *210:6 0.000310653
48 *134:76 *1450:A2 0.00050609
49 *134:76 *142:170 0
50 *134:76 *172:16 9.77405e-05
51 *134:76 *194:8 0.000561975
52 *134:76 *198:12 9.57021e-05
53 *134:93 *142:94 0.000827223
54 *134:93 *142:106 0.000243689
55 *134:93 *183:105 0.00010641
56 *134:93 *187:26 0.00104643
57 *134:93 *227:104 0.000135375
58 *134:107 *1500:B 0.00019257
59 *134:107 *188:16 0.000717349
60 *134:107 *188:18 0.000503195
61 *134:107 *228:64 0.000177492
62 *134:109 *135:16 1.21972e-05
63 *134:109 *142:131 5.12254e-05
64 *134:109 *218:18 0.0013727
65 *134:111 *142:131 2.93747e-05
66 *134:117 *142:131 2.47321e-05
67 *134:117 *152:8 5.3304e-05
68 *134:117 *199:10 2.21997e-05
69 *134:117 *199:27 3.53859e-05
70 *134:117 *201:49 0.00138784
71 *134:134 *1538:A2 5.50049e-05
72 *134:134 *152:16 4.6318e-06
73 *134:134 *178:8 2.10502e-05
74 *134:134 *178:12 0.000142794
75 *134:134 *220:32 8.58022e-05
76 *134:150 *218:18 8.264e-05
77 *1514:C1 *134:107 2.33476e-05
78 *36:8 *134:23 0.000143933
79 *40:8 *134:33 5.3304e-05
80 *45:80 *1462:A 5.37957e-05
81 *47:41 *134:12 0.000388706
82 *48:45 *134:134 0.000284858
83 *50:12 *134:156 0.000109253
84 *50:29 *134:150 0
85 *50:29 *134:156 0
86 *53:6 *134:33 0.000865553
87 *62:20 *134:107 0
88 *66:12 *134:76 0
89 *74:26 *134:93 0
90 *81:20 *134:117 0.000531581
91 *85:22 *134:93 0.00115357
92 *89:10 *1535:A1 0.000193133
93 *89:10 *134:56 0.000367792
94 *105:12 *134:134 9.28078e-06
95 *107:10 *134:117 0.000670499
96 *116:22 *134:27 0.00115737
97 *116:22 *134:33 0.000265028
98 *118:10 *134:134 0.000498522
99 *131:8 *134:107 0
100 *131:44 *134:107 0
101 *133:12 *1535:A1 6.76547e-05
102 *133:18 *1535:A1 2.41047e-05
103 *133:68 *134:150 2.55642e-05
104 *133:68 *134:156 0.000862772
105 *133:137 *1535:A1 6.48097e-05
106 *133:137 *134:56 0.000196754
*RES
1 *1390:X *134:6 29.3386 
2 *134:6 *134:12 37.2679 
3 *134:12 *1462:A 38.6214 
4 *134:12 *134:23 17.7521 
5 *134:23 *134:27 49.9243 
6 *134:27 *134:29 0.497143 
7 *134:29 *134:33 38.49 
8 *134:33 *1535:A1 45.6436 
9 *134:33 *134:56 30.0386 
10 *134:56 *1395:A1 23 
11 *134:29 *1537:A 23 
12 *134:23 *134:76 39.2979 
13 *134:76 *1428:A 23 
14 *134:6 *134:93 47.8752 
15 *134:93 *134:107 49.0719 
16 *134:107 *134:109 20.6314 
17 *134:109 *134:111 0.621429 
18 *134:111 *134:117 40.1679 
19 *134:117 *1455:B1 38 
20 *134:111 *134:134 44.2929 
21 *134:134 *1538:A1 23 
22 *134:109 *1408:B1 23 
23 *134:107 *134:150 21.6907 
24 *134:150 *134:156 30.2043 
25 *134:156 *1536:A1 23 
26 *134:150 *1391:B 38 
*END

*D_NET *135 0.0362516
*CONN
*I *1427:C I *D sky130_fd_sc_hd__and3_2
*I *1492:A1 I *D sky130_fd_sc_hd__a21oi_1
*I *1396:A1 I *D sky130_fd_sc_hd__o21ai_4
*I *1391:Y O *D sky130_fd_sc_hd__nand2_2
*CAP
1 *1427:C 0
2 *1492:A1 0
3 *1396:A1 0
4 *1391:Y 0.000801082
5 *135:59 0.000523136
6 *135:55 0.00182303
7 *135:51 0.00221555
8 *135:36 0.00227126
9 *135:34 0.00227126
10 *135:32 0.00113024
11 *135:28 0.00104797
12 *135:22 0.00138617
13 *135:16 0.000852138
14 *135:6 0.00110043
15 *135:6 *1587:A 8.15864e-05
16 *135:16 *142:131 0.000192256
17 *135:16 *178:12 0.000268231
18 *135:22 *1408:A1 0.000202416
19 *135:22 *152:16 0.000956116
20 *135:22 *211:41 0.000136464
21 *135:28 *152:16 3.22801e-05
22 *135:28 *158:14 0.00103317
23 *135:28 *205:21 0.000115115
24 *135:32 *177:28 0.000548311
25 *135:32 *194:49 0.000548311
26 *135:36 *1396:A2 9.46082e-05
27 *135:36 *140:6 0.00210873
28 *135:36 *180:8 2.64616e-05
29 *135:36 *208:28 2.31687e-05
30 *135:36 *209:28 0.000447436
31 *135:51 *173:41 0.00120596
32 *135:51 *177:28 0.0010503
33 *135:51 *185:31 1.44919e-05
34 *135:51 *185:46 0.000399648
35 *135:51 *194:49 0.000159911
36 *135:51 *209:114 0.000109157
37 *135:55 *136:73 0.000151785
38 *135:55 *149:63 0
39 *135:55 *149:67 0.0001329
40 *135:55 *173:41 0
41 *135:55 *185:46 0.000360978
42 *135:55 *186:59 0.00111142
43 *135:55 *186:89 0.00032966
44 *135:59 *138:37 0.001638
45 *135:59 *182:6 0.000612297
46 *35:41 *135:28 0.000426441
47 *35:71 *135:55 6.784e-05
48 *35:82 *135:55 0.000477933
49 *48:28 *135:28 0.000291992
50 *49:65 *135:16 1.34354e-05
51 *51:14 *135:6 0.00132463
52 *60:35 *135:55 0
53 *65:10 *135:59 2.64616e-05
54 *97:16 *135:36 0.000444726
55 *100:12 *135:16 0.000107651
56 *118:10 *135:22 0.000270928
57 *118:10 *135:28 0.00154265
58 *131:25 *135:6 0.00149502
59 *133:60 *135:6 0.00020832
60 *133:75 *135:6 2.79662e-05
61 *134:109 *135:16 1.21972e-05
*RES
1 *1391:Y *135:6 46.9664 
2 *135:6 *135:16 36.6907 
3 *135:16 *135:22 28.9718 
4 *135:22 *135:28 38.6246 
5 *135:28 *135:32 22.54 
6 *135:32 *135:34 15 
7 *135:34 *135:36 43.9764 
8 *135:36 *1396:A1 23 
9 *135:32 *135:51 40.6029 
10 *135:51 *135:55 48.2464 
11 *135:55 *135:59 34.2021 
12 *135:59 *1492:A1 23 
13 *135:51 *1427:C 23 
*END

*D_NET *136 0.0530531
*CONN
*I *1394:A I *D sky130_fd_sc_hd__nand2_2
*I *1395:A2 I *D sky130_fd_sc_hd__a22o_1
*I *1453:B1 I *D sky130_fd_sc_hd__a21oi_2
*I *1410:A2 I *D sky130_fd_sc_hd__a31o_1
*I *1536:A2 I *D sky130_fd_sc_hd__o22a_1
*I *1538:A2 I *D sky130_fd_sc_hd__a311o_1
*I *1427:A I *D sky130_fd_sc_hd__and3_2
*I *1535:A2 I *D sky130_fd_sc_hd__a21oi_2
*I *1416:B I *D sky130_fd_sc_hd__nand2_1
*I *1465:A1 I *D sky130_fd_sc_hd__o21a_1
*I *1392:X O *D sky130_fd_sc_hd__buf_4
*CAP
1 *1394:A 0.000208035
2 *1395:A2 0.000115071
3 *1453:B1 0.000105007
4 *1410:A2 5.24881e-05
5 *1536:A2 0.000198822
6 *1538:A2 0.000691993
7 *1427:A 0
8 *1535:A2 4.7212e-05
9 *1416:B 0.000115954
10 *1465:A1 0.000164098
11 *1392:X 8.00862e-05
12 *136:150 0.000765193
13 *136:116 0.000913209
14 *136:108 0.000420038
15 *136:106 0.00176102
16 *136:100 0.00189431
17 *136:96 0.000954688
18 *136:90 0.00189535
19 *136:73 0.00137462
20 *136:69 0.000480543
21 *136:65 0.00309195
22 *136:63 0.00306957
23 *136:61 0.00095019
24 *136:44 0.00135371
25 *136:22 0.00125438
26 *136:16 0.00146349
27 *136:12 0.00119949
28 *136:8 0.000223931
29 *1394:A *138:8 0.000139536
30 *1394:A *208:10 0.000603929
31 *1394:A *209:10 0.000342488
32 *1395:A2 *210:6 9.47033e-05
33 *1410:A2 *146:39 9.5877e-05
34 *1410:A2 *149:108 2.02872e-05
35 *1416:B *1416:A 7.87782e-05
36 *1416:B *1520:A1 9.77405e-05
37 *1453:B1 *224:23 5.56356e-05
38 *1465:A1 *1465:B1 9.5877e-05
39 *1465:A1 *1507:B1 2.2017e-05
40 *1465:A1 *192:32 8.71694e-05
41 *1538:A2 *178:8 3.72483e-05
42 *136:8 *202:14 0.000252131
43 *136:16 *207:21 0.000768863
44 *136:16 *219:22 0.000148302
45 *136:22 *1465:B1 2.71291e-05
46 *136:22 *193:18 0.000119555
47 *136:22 *207:10 0.000791545
48 *136:22 *207:21 0.00125508
49 *136:22 *219:22 0.000491161
50 *136:44 *1535:B1 1.17164e-05
51 *136:61 *1535:B1 3.70071e-06
52 *136:61 *208:12 0.000141879
53 *136:61 *209:16 0.000139647
54 *136:61 *225:82 0.000261951
55 *136:69 *149:67 9.03784e-05
56 *136:69 *186:59 8.11552e-05
57 *136:73 *149:67 0.000730917
58 *136:73 *149:71 4.60157e-05
59 *136:73 *185:46 5.95625e-06
60 *136:73 *186:59 0.000419912
61 *136:90 *167:24 2.29577e-05
62 *136:90 *192:28 0.00109713
63 *136:90 *194:24 0.000229797
64 *136:90 *209:114 0.000262907
65 *136:96 *143:30 0.00114353
66 *136:96 *153:33 0.000509763
67 *136:96 *183:18 0.000241606
68 *136:96 *196:66 0.000791626
69 *136:96 *196:68 0.000255113
70 *136:100 *142:106 0.000219891
71 *136:100 *153:39 0.000166522
72 *136:106 *142:106 0.000217902
73 *136:106 *146:39 0.000161121
74 *136:106 *217:10 0.000332236
75 *136:106 *226:56 0
76 *136:106 *227:104 0.000421205
77 *136:116 *213:26 0.000217247
78 *136:116 *226:56 0
79 *136:150 *208:10 0.000269884
80 *136:150 *208:12 0.000928459
81 *136:150 *209:10 0.00100631
82 *136:150 *209:16 0.000191157
83 *1426:A *1410:A2 7.59794e-05
84 *1535:A1 *1535:A2 2.30292e-05
85 *1535:A1 *136:44 2.3351e-05
86 *32:45 *136:65 0.00204417
87 *38:14 *136:65 0.000124373
88 *39:8 *1465:A1 0.000220492
89 *41:27 *136:61 8.27123e-05
90 *41:27 *136:65 0.000121404
91 *41:38 *136:65 0.000318365
92 *45:33 *136:106 0
93 *46:10 *136:90 0.000411834
94 *51:10 *136:106 0.000351599
95 *57:48 *136:106 0.000332927
96 *59:31 *136:96 0.000347205
97 *73:23 *136:100 1.17152e-05
98 *73:23 *136:106 0.000458421
99 *79:14 *136:96 2.81066e-05
100 *102:26 *136:90 0.00011563
101 *104:30 *1536:A2 0.000668341
102 *104:30 *136:116 0.000590694
103 *105:6 *1536:A2 0.000546158
104 *105:6 *136:116 0.000585716
105 *109:20 *136:22 0.000707681
106 *121:10 *136:8 0.000125904
107 *121:10 *136:16 0.000758719
108 *121:10 *136:22 0.00218771
109 *127:14 *136:96 0.000377651
110 *130:154 *136:90 2.4505e-05
111 *131:16 *136:106 0
112 *131:119 *1416:B 9.2891e-05
113 *134:134 *1538:A2 5.50049e-05
114 *135:55 *136:73 0.000151785
*RES
1 *1392:X *136:8 41.3143 
2 *136:8 *136:12 16.5743 
3 *136:12 *136:16 25.3571 
4 *136:16 *136:22 38.715 
5 *136:22 *1465:A1 41.9771 
6 *136:16 *1416:B 41.0036 
7 *136:12 *136:44 9.19714 
8 *136:44 *1535:A2 24.6157 
9 *136:44 *136:61 22.7679 
10 *136:61 *136:63 15 
11 *136:63 *136:65 41.5943 
12 *136:65 *136:69 16.2014 
13 *136:69 *136:73 25.7093 
14 *136:73 *1427:A 23 
15 *136:73 *136:90 49.6858 
16 *136:90 *136:96 43.8446 
17 *136:96 *136:100 17.9621 
18 *136:100 *136:106 42.4643 
19 *136:106 *136:108 15 
20 *136:108 *136:116 39.3007 
21 *136:116 *1538:A2 34.1029 
22 *136:108 *1536:A2 31.2443 
23 *136:100 *1410:A2 39.5743 
24 *136:69 *1453:B1 39.5743 
25 *136:61 *136:150 16.3436 
26 *136:150 *1395:A2 40.0507 
27 *136:150 *1394:A 46.2443 
*END

*D_NET *137 0.0546593
*CONN
*I *1546:A2 I *D sky130_fd_sc_hd__o22a_1
*I *1545:A2 I *D sky130_fd_sc_hd__a21oi_1
*I *1394:B I *D sky130_fd_sc_hd__nand2_2
*I *1493:B I *D sky130_fd_sc_hd__nand3_2
*I *1494:A2 I *D sky130_fd_sc_hd__a21o_1
*I *1547:A I *D sky130_fd_sc_hd__nor2_1
*I *1427:B I *D sky130_fd_sc_hd__and3_2
*I *1548:A2 I *D sky130_fd_sc_hd__a311o_1
*I *1468:A I *D sky130_fd_sc_hd__nor2_2
*I *1467:A I *D sky130_fd_sc_hd__nand2_2
*I *1393:X O *D sky130_fd_sc_hd__buf_4
*CAP
1 *1546:A2 0
2 *1545:A2 3.45092e-05
3 *1394:B 0
4 *1493:B 2.25736e-05
5 *1494:A2 0
6 *1547:A 0.000406719
7 *1427:B 0
8 *1548:A2 0
9 *1468:A 0
10 *1467:A 0
11 *1393:X 0.000231146
12 *137:171 0.000328827
13 *137:165 0.00136401
14 *137:148 0.00159503
15 *137:133 0.00157245
16 *137:131 0.00193392
17 *137:112 0.00207306
18 *137:101 5.78251e-05
19 *137:90 0.00030702
20 *137:73 0.000414816
21 *137:63 0.0012777
22 *137:59 0.00192394
23 *137:55 0.00291495
24 *137:53 0.00128537
25 *137:43 0.00138502
26 *137:32 0.00248161
27 *137:28 0.00338385
28 *137:26 0.000743202
29 *137:16 0.00143594
30 *137:10 0.000923882
31 *1545:A2 *149:73 2.64616e-05
32 *1547:A *183:78 5.5792e-05
33 *137:10 *168:36 2.33512e-05
34 *137:10 *186:32 0
35 *137:16 *1546:B1 5.3304e-05
36 *137:16 *1558:A1 0.000487193
37 *137:16 *168:36 0.000769957
38 *137:16 *186:32 0
39 *137:26 *1558:A1 0.000138607
40 *137:26 *149:87 5.33597e-05
41 *137:26 *149:91 0.00142773
42 *137:26 *158:45 0.000828145
43 *137:26 *176:24 0.000270069
44 *137:26 *188:75 0.000349386
45 *137:26 *196:14 2.56944e-05
46 *137:26 *197:37 0.000141917
47 *137:26 *226:44 5.56279e-05
48 *137:32 *152:20 0.000733896
49 *137:43 *149:104 0.00029921
50 *137:43 *152:20 8.48502e-06
51 *137:43 *186:18 0.000561259
52 *137:43 *220:22 0.000770741
53 *137:53 *186:18 0.000213776
54 *137:53 *220:16 9.79794e-05
55 *137:53 *220:22 4.39967e-05
56 *137:55 *140:16 0.000165034
57 *137:55 *140:35 0.00103467
58 *137:55 *171:16 0.000237263
59 *137:55 *185:10 0.000419633
60 *137:55 *197:37 0.000374036
61 *137:59 *1451:B 0.000422999
62 *137:59 *141:62 0.000398075
63 *137:59 *194:24 0.000165591
64 *137:63 *194:24 0.000309459
65 *137:63 *210:91 3.32912e-05
66 *137:73 *198:26 0.000444
67 *137:90 *170:31 0
68 *137:90 *181:59 1.12863e-05
69 *137:90 *222:66 0.000315263
70 *137:90 *222:68 6.86795e-05
71 *137:101 *149:71 2.37093e-05
72 *137:101 *185:46 8.60837e-05
73 *137:112 *148:148 4.15283e-06
74 *137:112 *155:20 0.00015426
75 *137:112 *171:16 3.40021e-05
76 *137:112 *172:18 0.000472393
77 *137:112 *174:53 0.000611877
78 *137:112 *185:10 0.0012059
79 *137:112 *209:85 0.000289355
80 *137:131 *138:33 6.0039e-05
81 *137:131 *155:20 0.000151253
82 *137:131 *168:12 1.22803e-05
83 *137:131 *172:18 0.000817967
84 *137:131 *185:10 6.4038e-05
85 *137:131 *196:114 0
86 *137:131 *199:63 0
87 *137:131 *209:85 1.0092e-05
88 *137:148 *142:183 0.000116307
89 *137:148 *149:61 0.00176528
90 *137:148 *212:22 0.00188972
91 *137:165 *1518:A2 9.84794e-05
92 *137:165 *1518:C1 5.50106e-05
93 *137:165 *142:183 0.000177899
94 *137:171 *138:8 6.70363e-05
95 *137:171 *207:31 0
96 *137:171 *208:10 0
97 *137:171 *229:74 0
98 *1475:B *137:63 9.67816e-05
99 *1475:B *137:90 5.46873e-05
100 *34:29 *137:32 0.000172949
101 *40:20 *137:32 8.73233e-05
102 *42:8 *137:73 0.000259968
103 *42:10 *137:55 1.13451e-05
104 *45:17 *137:131 0.00104644
105 *49:6 *137:63 0.000940562
106 *49:6 *137:90 0.000439193
107 *53:76 *137:16 9.3027e-05
108 *60:41 *137:165 1.03955e-05
109 *61:18 *1547:A 5.35844e-05
110 *65:16 *137:148 0.000251675
111 *67:12 *137:131 4.41789e-05
112 *89:6 *137:165 0.000771245
113 *94:8 *137:53 0.000414076
114 *98:8 *1547:A 9.64943e-05
115 *113:16 *137:16 5.58003e-05
116 *114:8 *137:16 5.46902e-05
117 *114:8 *137:26 6.17437e-06
118 *114:20 *137:90 3.36312e-06
119 *117:20 *1545:A2 1.59094e-05
120 *129:8 *1547:A 0.000302325
121 *129:46 *137:165 9.84794e-05
122 *130:67 *137:43 0.000171752
123 *132:14 *137:53 0.000411214
124 *133:158 *137:131 4.21457e-05
125 *133:158 *137:148 0.000107748
126 *133:158 *137:165 0
127 *134:12 *137:73 0.00044609
*RES
1 *1393:X *137:10 40.6514 
2 *137:10 *137:16 31.095 
3 *137:16 *137:26 37.91 
4 *137:26 *137:28 15 
5 *137:28 *137:32 31.4857 
6 *137:32 *1467:A 23 
7 *137:28 *137:43 32.5243 
8 *137:43 *137:53 42.3043 
9 *137:53 *137:55 23.3864 
10 *137:55 *137:59 32.2964 
11 *137:59 *137:63 13.0293 
12 *137:63 *137:73 40.585 
13 *137:73 *1468:A 23 
14 *137:63 *137:90 38.2857 
15 *137:90 *1548:A2 23 
16 *137:59 *137:101 31.2014 
17 *137:101 *1427:B 23 
18 *137:55 *137:112 22.1643 
19 *137:112 *1547:A 44.525 
20 *137:112 *137:131 22.0193 
21 *137:131 *137:133 15 
22 *137:133 *1494:A2 23 
23 *137:133 *137:148 46.6233 
24 *137:148 *1493:B 46.3211 
25 *137:131 *137:165 40.0229 
26 *137:165 *137:171 36.1314 
27 *137:171 *1394:B 23 
28 *137:43 *1545:A2 38.6214 
29 *137:16 *1546:A2 23 
*END

*D_NET *138 0.0228697
*CONN
*I *1492:B1 I *D sky130_fd_sc_hd__a21oi_1
*I *1396:A2 I *D sky130_fd_sc_hd__o21ai_4
*I *1394:Y O *D sky130_fd_sc_hd__nand2_2
*CAP
1 *1492:B1 0
2 *1396:A2 0.000160393
3 *1394:Y 0.00021835
4 *138:37 0.00179655
5 *138:35 0.00179655
6 *138:33 0.000640179
7 *138:16 0.0018247
8 *138:14 0.00175735
9 *138:10 0.000733217
10 *138:8 0.00021835
11 *138:8 *207:31 0
12 *138:8 *208:10 2.04774e-05
13 *138:8 *209:10 0.000108681
14 *138:14 *168:8 5.60728e-05
15 *138:14 *203:35 0.000175903
16 *138:16 *139:10 0.00361513
17 *138:16 *193:8 0
18 *138:16 *208:10 0.000492284
19 *138:16 *208:12 0.00286922
20 *138:16 *225:84 0
21 *138:16 *225:97 0
22 *138:33 *168:8 0.000655138
23 *138:33 *199:63 0.000215791
24 *138:33 *203:35 0.00181599
25 *138:37 *182:6 3.22118e-05
26 *1394:A *138:8 0.000139536
27 *1533:A *138:37 0.000539188
28 *35:86 *138:37 0.000229044
29 *70:16 *138:16 0.000107508
30 *81:32 *138:16 0.000352929
31 *102:6 *138:37 0.000392594
32 *122:20 *138:16 4.66576e-05
33 *135:36 *1396:A2 9.46082e-05
34 *135:59 *138:37 0.001638
35 *137:131 *138:33 6.0039e-05
36 *137:171 *138:8 6.70363e-05
*RES
1 *1394:Y *138:8 43.7793 
2 *138:8 *138:10 15 
3 *138:10 *138:14 17.0507 
4 *138:14 *138:16 53.6707 
5 *138:16 *1396:A2 40.5479 
6 *138:10 *138:33 38.1171 
7 *138:33 *138:35 15 
8 *138:35 *138:37 37.7829 
9 *138:37 *1492:B1 23 
*END

*D_NET *139 0.00941483
*CONN
*I *1396:B1 I *D sky130_fd_sc_hd__o21ai_4
*I *1395:X O *D sky130_fd_sc_hd__a22o_1
*CAP
1 *1396:B1 0
2 *1395:X 4.99221e-05
3 *139:10 0.00160093
4 *139:8 0.00165085
5 *139:8 *210:6 5.3304e-05
6 *139:10 *225:84 0.000210849
7 *40:14 *139:10 0.00103992
8 *40:20 *139:10 0.000781892
9 *53:24 *139:10 0.000283269
10 *70:16 *139:10 1.37246e-05
11 *81:32 *139:10 0.000115038
12 *138:16 *139:10 0.00361513
*RES
1 *1395:X *139:8 38.6214 
2 *139:8 *139:10 49.7971 
3 *139:10 *1396:B1 38 
*END

*D_NET *140 0.0161287
*CONN
*I *1425:A_N I *D sky130_fd_sc_hd__and2b_2
*I *1402:A I *D sky130_fd_sc_hd__xnor2_4
*I *1396:Y O *D sky130_fd_sc_hd__o21ai_4
*CAP
1 *1425:A_N 0
2 *1402:A 0
3 *1396:Y 0.00139802
4 *140:35 0.00099418
5 *140:24 0.000536789
6 *140:16 0.00182485
7 *140:8 0.00228224
8 *140:6 0.00139802
9 *140:16 *142:123 0.000575557
10 *140:16 *171:20 0.000439382
11 *140:16 *197:37 0.000322232
12 *140:16 *198:26 0.000288059
13 *140:16 *198:32 0.000486792
14 *140:24 *1446:B2 0
15 *140:24 *205:78 5.16812e-05
16 *140:24 *206:62 0.000553581
17 *140:24 *227:81 1.00084e-05
18 *140:35 *169:10 5.3304e-05
19 *140:35 *171:16 0.000669558
20 *140:35 *171:20 0.000166106
21 *140:35 *179:8 0.000390945
22 *140:35 *198:26 0.000110915
23 *1559:B1 *140:24 3.4299e-05
24 *34:29 *140:16 0.000212386
25 *63:10 *140:16 2.13808e-05
26 *135:36 *140:6 0.00210873
27 *137:55 *140:16 0.000165034
28 *137:55 *140:35 0.00103467
*RES
1 *1396:Y *140:6 46.9664 
2 *140:6 *140:8 15 
3 *140:8 *140:16 45.9679 
4 *140:16 *140:24 37.54 
5 *140:24 *1402:A 23 
6 *140:8 *140:35 37.9514 
7 *140:35 *1425:A_N 23 
*END

*D_NET *141 0.0244122
*CONN
*I *1406:B I *D sky130_fd_sc_hd__or3_4
*I *1401:A1 I *D sky130_fd_sc_hd__o21bai_4
*I *1407:B1 I *D sky130_fd_sc_hd__o21ai_2
*I *1397:Y O *D sky130_fd_sc_hd__nand2_2
*CAP
1 *1406:B 0
2 *1401:A1 0.000169412
3 *1407:B1 0.0001375
4 *1397:Y 0.000239671
5 *141:66 0.0021533
6 *141:64 0.0021533
7 *141:62 0.000185011
8 *141:28 0.000719154
9 *141:26 0.00181004
10 *141:16 0.00237525
11 *141:10 0.00140213
12 *1401:A1 *1407:A2 3.00669e-05
13 *1401:A1 *1500:A 0.000264773
14 *1407:B1 *1407:A2 0.00016475
15 *1407:B1 *1500:A 2.06822e-05
16 *1407:B1 *144:51 5.5792e-05
17 *1407:B1 *145:10 7.15579e-05
18 *141:10 *1421:B 7.07867e-05
19 *141:10 *169:20 0.000323509
20 *141:10 *202:35 5.11621e-05
21 *141:16 *158:14 0.000695185
22 *141:16 *169:20 0.000678543
23 *141:16 *178:18 0.00057151
24 *141:16 *194:39 0.000868317
25 *141:26 *152:16 0.000119944
26 *141:26 *158:14 0.000909026
27 *141:26 *177:24 4.8098e-05
28 *141:28 *196:47 0.000353852
29 *141:62 *1451:B 0.000356126
30 *141:62 *186:18 0.000133646
31 *141:62 *194:24 5.3304e-05
32 *141:62 *220:16 0.000131517
33 *141:66 *171:10 0.00089789
34 *141:66 *183:34 0.000361101
35 *141:66 *197:33 0.000692922
36 *35:61 *141:26 3.04115e-05
37 *35:63 *141:26 0.000718723
38 *44:20 *141:10 0.000110008
39 *44:20 *141:16 0.000165847
40 *48:28 *141:26 0.000200681
41 *60:26 *141:26 9.58483e-06
42 *69:18 *141:66 0.00186384
43 *72:23 *1407:B1 6.30761e-05
44 *72:23 *141:28 0.000869048
45 *73:12 *1401:A1 1.05235e-05
46 *80:10 *1407:B1 6.07848e-05
47 *80:10 *141:28 0.000156789
48 *102:26 *141:28 0.00010009
49 *114:14 *141:10 9.77405e-05
50 *118:8 *141:16 9.41704e-05
51 *118:10 *141:16 3.46013e-05
52 *131:54 *141:26 0.000159368
53 *137:59 *141:62 0.000398075
*RES
1 *1397:Y *141:10 43.8207 
2 *141:10 *141:16 42.6536 
3 *141:16 *141:26 45.5911 
4 *141:26 *141:28 11.9418 
5 *141:28 *1407:B1 42.0186 
6 *141:28 *1401:A1 41.8529 
7 *141:10 *141:62 36.3386 
8 *141:62 *141:64 15 
9 *141:64 *141:66 41.1179 
10 *141:66 *1406:B 23 
*END

*D_NET *142 0.0584134
*CONN
*I *1518:A1 I *D sky130_fd_sc_hd__o211ai_2
*I *1399:B2 I *D sky130_fd_sc_hd__a22oi_4
*I *1456:C I *D sky130_fd_sc_hd__and3_1
*I *1521:A1 I *D sky130_fd_sc_hd__a31o_1
*I *1408:B2 I *D sky130_fd_sc_hd__a22o_1
*I *1460:B_N I *D sky130_fd_sc_hd__or2b_1
*I *1457:A1 I *D sky130_fd_sc_hd__a21oi_1
*I *1419:A I *D sky130_fd_sc_hd__and4_2
*I *1524:A1 I *D sky130_fd_sc_hd__a22o_1
*I *1519:A1 I *D sky130_fd_sc_hd__a31o_1
*I *1398:X O *D sky130_fd_sc_hd__buf_4
*CAP
1 *1518:A1 0
2 *1399:B2 0
3 *1456:C 0.000202786
4 *1521:A1 0
5 *1408:B2 0
6 *1460:B_N 0.000181751
7 *1457:A1 0
8 *1419:A 0
9 *1524:A1 0
10 *1519:A1 0.000657781
11 *1398:X 0
12 *142:183 0.00147279
13 *142:181 0.00182136
14 *142:170 0.00124508
15 *142:164 0.00147575
16 *142:131 0.000702104
17 *142:123 0.00141389
18 *142:112 0.00224171
19 *142:106 0.00192013
20 *142:94 0.00185203
21 *142:92 0.00140928
22 *142:78 0.00136393
23 *142:71 6.88771e-05
24 *142:60 0.000112319
25 *142:49 0.000516172
26 *142:30 0.00189887
27 *142:28 0.00145977
28 *142:18 0.000958905
29 *142:16 0.00279778
30 *142:14 0.0028674
31 *142:4 0.00070293
32 *1456:C *1456:A 0.000374309
33 *1460:B_N *148:46 2.81066e-05
34 *1460:B_N *195:63 0.000345553
35 *1519:A1 *1413:A1 1.45436e-05
36 *1519:A1 *1519:A2 9.8173e-05
37 *1519:A1 *185:16 4.21281e-05
38 *1519:A1 *204:8 5.3304e-05
39 *142:14 *1398:A 5.75988e-05
40 *142:14 *192:28 6.33614e-05
41 *142:14 *197:10 0.000136486
42 *142:16 *143:52 0.00319504
43 *142:18 *143:52 0.000127404
44 *142:28 *143:52 0.000222668
45 *142:28 *185:16 3.7681e-05
46 *142:30 *185:16 0.000526719
47 *142:49 *164:23 0.00134066
48 *142:49 *167:34 0.000186663
49 *142:49 *188:96 0.00134156
50 *142:60 *148:133 6.80048e-05
51 *142:71 *223:10 0.000163677
52 *142:92 *149:145 0.000131972
53 *142:92 *170:31 0.000373851
54 *142:94 *187:26 0.000114127
55 *142:94 *198:12 2.87798e-05
56 *142:94 *198:26 0.000661232
57 *142:94 *222:53 0.000859928
58 *142:94 *222:66 0.0003981
59 *142:106 *183:105 0.000205702
60 *142:106 *187:26 2.24151e-05
61 *142:106 *227:104 0.000660842
62 *142:112 *195:63 0.0020525
63 *142:112 *226:69 0.000431269
64 *142:123 *158:45 0.000353535
65 *142:123 *176:24 0.000115051
66 *142:123 *197:37 0.000829682
67 *142:123 *198:32 0.000112878
68 *142:123 *211:24 2.05503e-05
69 *142:131 *158:45 0.000108361
70 *142:131 *201:49 0.00109042
71 *142:164 *202:48 0.00104207
72 *142:164 *222:68 0.00104207
73 *142:170 *1450:A1 0
74 *142:170 *192:46 0.00031526
75 *142:170 *198:10 0.000312772
76 *142:170 *198:12 5.71002e-06
77 *142:170 *222:68 0
78 *142:170 *224:41 0.000787512
79 *142:181 *149:169 9.41618e-05
80 *1519:B1 *1519:A1 0.000864376
81 *1524:A2 *142:49 9.66585e-05
82 *1524:B1 *142:49 2.64616e-05
83 *30:6 *1456:C 0.000164277
84 *30:14 *142:49 1.21972e-05
85 *34:12 *1460:B_N 4.38638e-05
86 *34:12 *142:112 0.00025569
87 *35:55 *142:112 9.64943e-05
88 *36:16 *142:14 0.00026025
89 *36:16 *142:78 8.41122e-05
90 *47:41 *142:94 0
91 *47:41 *142:106 0
92 *52:24 *142:92 3.36029e-06
93 *55:31 *142:28 0.000798318
94 *56:52 *142:28 0
95 *60:41 *142:183 0.00171395
96 *63:10 *142:123 0
97 *63:10 *142:131 0
98 *63:44 *142:131 8.02832e-05
99 *65:10 *142:170 0
100 *65:10 *142:181 0
101 *66:12 *142:170 0
102 *66:12 *142:181 0
103 *73:23 *142:106 5.46254e-05
104 *90:10 *1519:A1 9.66668e-05
105 *115:18 *142:92 0.000373851
106 *115:18 *142:94 2.26406e-05
107 *115:18 *142:170 1.0092e-05
108 *131:70 *142:28 0.000239712
109 *131:148 *142:60 6.80048e-05
110 *131:148 *142:71 0.000161486
111 *134:12 *142:94 0.000272233
112 *134:76 *142:170 0
113 *134:93 *142:94 0.000827223
114 *134:93 *142:106 0.000243689
115 *134:109 *142:131 5.12254e-05
116 *134:111 *142:131 2.93747e-05
117 *134:117 *142:131 2.47321e-05
118 *135:16 *142:131 0.000192256
119 *136:100 *142:106 0.000219891
120 *136:106 *142:106 0.000217902
121 *137:148 *142:183 0.000116307
122 *137:165 *142:183 0.000177899
123 *140:16 *142:123 0.000575557
*RES
1 *1398:X *142:4 23 
2 *142:4 *142:14 35.7586 
3 *142:14 *142:16 36.3536 
4 *142:16 *142:18 1.57429 
5 *142:18 *142:28 44.4379 
6 *142:28 *142:30 11.5793 
7 *142:30 *1519:A1 35.5736 
8 *142:30 *142:49 49.2021 
9 *142:49 *1524:A1 23 
10 *142:18 *142:60 32.2579 
11 *142:60 *1419:A 23 
12 *142:16 *142:71 32.2579 
13 *142:71 *1457:A1 23 
14 *142:4 *142:78 6.33857 
15 *142:78 *142:92 36.7177 
16 *142:92 *142:94 31.6618 
17 *142:94 *142:106 30.7636 
18 *142:106 *142:112 30.3257 
19 *142:112 *1460:B_N 26.9564 
20 *142:112 *142:123 32.4 
21 *142:123 *142:131 32.0686 
22 *142:131 *1408:B2 23 
23 *142:123 *1521:A1 38 
24 *142:94 *1456:C 43.3184 
25 *142:78 *142:164 47.3586 
26 *142:164 *142:170 35.1757 
27 *142:170 *1399:B2 38 
28 *142:170 *142:181 20.4271 
29 *142:181 *142:183 34.9243 
30 *142:183 *1518:A1 23 
*END

*D_NET *143 0.0320053
*CONN
*I *1406:C I *D sky130_fd_sc_hd__or3_4
*I *1401:A2 I *D sky130_fd_sc_hd__o21bai_4
*I *1407:A2 I *D sky130_fd_sc_hd__o21ai_2
*I *1399:Y O *D sky130_fd_sc_hd__a22oi_4
*CAP
1 *1406:C 0
2 *1401:A2 0
3 *1407:A2 0.000553559
4 *1399:Y 0.000315382
5 *143:58 9.68451e-05
6 *143:52 0.00211484
7 *143:50 0.00201799
8 *143:30 0.00152669
9 *143:26 0.00244818
10 *143:10 0.00279106
11 *143:8 0.00163139
12 *1407:A2 *144:51 3.77062e-05
13 *1407:A2 *145:10 3.32537e-05
14 *1407:A2 *151:10 5.5792e-05
15 *143:8 *225:107 0.000694099
16 *143:10 *151:33 0.000539001
17 *143:10 *154:21 0.000297157
18 *143:10 *192:10 0.000122945
19 *143:10 *192:16 2.30917e-05
20 *143:10 *194:16 0.000246551
21 *143:10 *196:95 0.000362885
22 *143:10 *208:71 0.000522038
23 *143:26 *1462:B 1.69668e-05
24 *143:26 *151:33 0.000103953
25 *143:26 *183:18 2.28017e-05
26 *143:26 *196:68 0.000782834
27 *143:26 *196:95 2.55642e-05
28 *143:26 *208:71 0.000121173
29 *143:26 *210:91 0
30 *143:26 *222:45 1.40476e-05
31 *143:30 *151:22 6.80371e-05
32 *143:30 *151:33 0.000230625
33 *143:30 *156:8 0.000134767
34 *143:30 *196:47 0.00106734
35 *143:30 *196:66 9.77365e-05
36 *143:30 *196:68 0.000364218
37 *143:30 *226:69 3.77526e-05
38 *143:52 *164:21 0.000175903
39 *143:52 *202:35 0.00405522
40 *143:52 *202:44 0.000457231
41 *143:58 *161:10 0.000240426
42 *143:58 *201:27 0.000242666
43 *1401:A1 *1407:A2 3.00669e-05
44 *1407:B1 *1407:A2 0.00016475
45 *1508:B *143:30 0.00109965
46 *52:24 *143:26 0.00117864
47 *74:26 *143:30 0.00014977
48 *130:154 *143:26 4.02281e-06
49 *136:96 *143:30 0.00114353
50 *142:16 *143:52 0.00319504
51 *142:18 *143:52 0.000127404
52 *142:28 *143:52 0.000222668
*RES
1 *1399:Y *143:8 45.7679 
2 *143:8 *143:10 33.5986 
3 *143:10 *143:26 44.5232 
4 *143:26 *143:30 47.3661 
5 *143:30 *1407:A2 30.9439 
6 *143:30 *1401:A2 23 
7 *143:10 *143:50 15 
8 *143:50 *143:52 55.8871 
9 *143:52 *143:58 33.3143 
10 *143:58 *1406:C 23 
*END

*D_NET *144 0.0245039
*CONN
*I *1406:A I *D sky130_fd_sc_hd__or3_4
*I *1401:B1_N I *D sky130_fd_sc_hd__o21bai_4
*I *1407:A1 I *D sky130_fd_sc_hd__o21ai_2
*I *1400:X O *D sky130_fd_sc_hd__and4_2
*CAP
1 *1406:A 0
2 *1401:B1_N 0
3 *1407:A1 0
4 *1400:X 0.000281401
5 *144:58 0.00166196
6 *144:51 0.000273715
7 *144:36 6.67214e-05
8 *144:30 0.00107267
9 *144:28 0.00282077
10 *144:12 0.00208854
11 *144:10 0.00196518
12 *144:8 0.000584627
13 *144:8 *201:33 0.000309954
14 *144:10 *167:38 0.000168524
15 *144:10 *201:31 0.000729202
16 *144:28 *1446:B2 4.18831e-05
17 *144:28 *190:6 0.000149672
18 *144:28 *199:10 5.58003e-05
19 *144:28 *199:25 4.46854e-05
20 *144:28 *205:78 2.93431e-05
21 *144:28 *225:10 0.000570188
22 *144:28 *225:64 0.000214047
23 *144:28 *227:23 9.95521e-05
24 *144:28 *227:64 0.000789
25 *144:28 *228:31 3.78992e-05
26 *144:30 *1590:A 2.64616e-05
27 *144:30 *221:8 5.84691e-05
28 *144:30 *227:94 2.03764e-06
29 *144:36 *204:46 0.00013757
30 *144:51 *145:10 0.000179725
31 *144:51 *151:10 8.72142e-05
32 *144:51 *218:10 1.358e-05
33 *144:51 *221:8 6.63159e-06
34 *144:58 *159:10 0
35 *144:58 *167:34 4.73652e-05
36 *144:58 *167:38 0.0014928
37 *144:58 *201:27 0.00108579
38 *144:58 *201:31 0.00157615
39 *1407:A2 *144:51 3.77062e-05
40 *1407:B1 *144:51 5.5792e-05
41 *1461:C *144:30 5.73018e-05
42 *1497:B *144:58 0.000379734
43 *1524:A2 *144:58 8.27856e-05
44 *1540:B1 *144:51 2.95526e-05
45 *33:30 *144:28 0.00132448
46 *35:12 *144:28 0.000100061
47 *35:12 *144:30 0.000173415
48 *46:10 *144:51 4.3184e-05
49 *49:65 *144:36 6.27555e-05
50 *69:35 *144:58 2.77955e-05
51 *91:24 *144:28 0.000227978
52 *104:22 *144:58 0.000333841
53 *108:20 *144:51 0.00013228
54 *120:10 *144:10 0.00027182
55 *120:27 *144:58 0.000548785
56 *131:76 *144:58 0.00167873
57 *131:119 *144:58 0.000166775
*RES
1 *1400:X *144:8 41.9564 
2 *144:8 *144:10 10.005 
3 *144:10 *144:12 15 
4 *144:12 *144:28 44.7221 
5 *144:28 *144:30 9.19714 
6 *144:30 *144:36 31.9057 
7 *144:36 *1407:A1 23 
8 *144:30 *144:51 35.5307 
9 *144:51 *1401:B1_N 23 
10 *144:10 *144:58 57.1921 
11 *144:58 *1406:A 38 
*END

*D_NET *145 0.0146886
*CONN
*I *1402:B I *D sky130_fd_sc_hd__xnor2_4
*I *1425:B I *D sky130_fd_sc_hd__and2b_2
*I *1401:Y O *D sky130_fd_sc_hd__o21bai_4
*CAP
1 *1402:B 0
2 *1425:B 9.30226e-05
3 *1401:Y 0.000477347
4 *145:24 0.00152809
5 *145:22 0.0023017
6 *145:10 0.00134397
7 *1425:B *179:8 0.00026353
8 *1425:B *185:16 0.00026353
9 *145:10 *1500:A 9.06164e-05
10 *145:10 *206:62 0.000817465
11 *145:22 *174:24 2.62577e-05
12 *145:22 *183:168 0.000267727
13 *145:22 *199:27 0.000142389
14 *145:22 *206:62 0.000218068
15 *145:22 *227:64 3.67392e-05
16 *145:22 *227:81 0.000845054
17 *145:24 *172:32 0.00233992
18 *145:24 *174:24 0.000367095
19 *145:24 *174:47 0.000173717
20 *145:24 *175:26 0.000162126
21 *145:24 *199:27 0.000113636
22 *1407:A2 *145:10 3.32537e-05
23 *1407:B1 *145:10 7.15579e-05
24 *35:33 *145:10 0.000261458
25 *68:8 *145:24 7.61962e-05
26 *77:24 *145:22 0.000721121
27 *98:10 *145:24 0.00108011
28 *106:24 *145:24 0.000393165
29 *144:51 *145:10 0.000179725
*RES
1 *1401:Y *145:10 35.0971 
2 *145:10 *145:22 35.7246 
3 *145:22 *145:24 41.8739 
4 *145:24 *1425:B 41.0036 
5 *145:10 *1402:B 23 
*END

*D_NET *146 0.0101197
*CONN
*I *1426:C I *D sky130_fd_sc_hd__and3_2
*I *1403:B I *D sky130_fd_sc_hd__xnor2_4
*I *1402:Y O *D sky130_fd_sc_hd__xnor2_4
*CAP
1 *1426:C 0
2 *1403:B 0
3 *1402:Y 0.000255302
4 *146:39 0.000688205
5 *146:18 0.000725646
6 *146:12 0.00171677
7 *146:8 0.000558226
8 *146:8 *178:12 0.000797892
9 *146:12 *170:18 0.000558677
10 *146:18 *192:28 0.000414861
11 *146:18 *205:53 7.01841e-05
12 *146:39 *149:108 0.000202911
13 *146:39 *170:18 0.000760397
14 *1410:A2 *146:39 9.5877e-05
15 *1426:A *146:39 3.50185e-05
16 *46:10 *146:18 0.00144339
17 *49:55 *146:18 7.37814e-06
18 *49:63 *146:18 6.69901e-05
19 *73:23 *146:39 0.000163361
20 *88:24 *146:8 0.000175851
21 *102:26 *146:18 0.000119516
22 *118:10 *146:8 0.000800123
23 *131:44 *146:39 0.000136743
24 *132:20 *146:18 0.000165304
25 *136:106 *146:39 0.000161121
*RES
1 *1402:Y *146:8 48.7093 
2 *146:8 *146:12 21.3386 
3 *146:12 *146:18 49.865 
4 *146:18 *1403:B 23 
5 *146:12 *146:39 45.4736 
6 *146:39 *1426:C 23 
*END

*D_NET *147 0.018143
*CONN
*I *1415:A I *D sky130_fd_sc_hd__xor2_2
*I *1414:A I *D sky130_fd_sc_hd__nand2_2
*I *1403:Y O *D sky130_fd_sc_hd__xnor2_4
*CAP
1 *1415:A 7.51618e-05
2 *1414:A 8.88625e-05
3 *1403:Y 0.000125486
4 *147:33 0.00091754
5 *147:25 0.005833
6 *147:23 0.00511501
7 *147:10 0.000338732
8 *1414:A *181:12 0.000136738
9 *147:10 *177:28 0.000161121
10 *147:10 *185:31 0.000161121
11 *147:23 *177:28 0.000365855
12 *147:23 *185:31 0.000375999
13 *147:25 *1449:C 0.00013883
14 *147:25 *156:41 0.000111709
15 *147:25 *194:39 0.000180841
16 *147:25 *208:28 0.000649164
17 *147:25 *228:78 0.000564834
18 *147:33 *1413:A3 4.80826e-05
19 *147:33 *1413:B1 1.12919e-05
20 *147:33 *1415:B 0.00122225
21 *147:33 *148:22 0
22 *147:33 *148:24 0
23 *147:33 *160:12 0.000595464
24 *30:27 *147:25 0.000155533
25 *31:20 *147:33 9.79908e-05
26 *31:28 *147:33 0.0004285
27 *39:20 *147:25 1.85916e-05
28 *91:14 *147:25 0.000225253
*RES
1 *1403:Y *147:10 40.8793 
2 *147:10 *1414:A 39.5743 
3 *147:10 *147:23 20.075 
4 *147:23 *147:25 60.175 
5 *147:25 *147:33 39.505 
6 *147:33 *1415:A 39.0979 
*END

*D_NET *148 0.0408363
*CONN
*I *1518:A2 I *D sky130_fd_sc_hd__o211ai_2
*I *1421:A I *D sky130_fd_sc_hd__nand2_2
*I *1419:B I *D sky130_fd_sc_hd__and4_2
*I *1416:A I *D sky130_fd_sc_hd__nand2_1
*I *1520:A1 I *D sky130_fd_sc_hd__o21ai_2
*I *1519:A2 I *D sky130_fd_sc_hd__a31o_1
*I *1413:A1 I *D sky130_fd_sc_hd__a31o_2
*I *1524:B2 I *D sky130_fd_sc_hd__a22o_1
*I *1460:A I *D sky130_fd_sc_hd__or2b_1
*I *1521:A2 I *D sky130_fd_sc_hd__a31o_1
*I *1404:X O *D sky130_fd_sc_hd__clkbuf_4
*CAP
1 *1518:A2 0.000216014
2 *1421:A 4.08563e-05
3 *1419:B 0
4 *1416:A 0.000193847
5 *1520:A1 2.9328e-05
6 *1519:A2 0.000117812
7 *1413:A1 0.000280199
8 *1524:B2 2.842e-05
9 *1460:A 0
10 *1521:A2 0
11 *1404:X 0.000255096
12 *148:148 0.00143292
13 *148:133 0.000173319
14 *148:79 0.000398011
15 *148:60 0.000575471
16 *148:46 0.00124163
17 *148:40 0.00216927
18 *148:36 0.00160434
19 *148:30 0.00108007
20 *148:24 0.0013584
21 *148:22 0.000486296
22 *148:20 0.00176518
23 *148:14 0.00246597
24 *148:12 0.00216236
25 *148:10 0.00125374
26 *148:8 0.00172485
27 *1413:A1 *1415:B 3.7122e-06
28 *1413:A1 *204:8 9.97159e-05
29 *1416:A *160:8 7.51453e-06
30 *1421:A *197:33 1.09903e-05
31 *1518:A2 *225:103 0.000101136
32 *148:8 *149:48 0.000164499
33 *148:10 *175:26 0.000447013
34 *148:10 *199:42 1.7992e-05
35 *148:10 *199:63 4.10714e-05
36 *148:10 *225:103 0.000108681
37 *148:14 *202:35 0.000577988
38 *148:20 *1420:B 0.000389027
39 *148:20 *160:12 0
40 *148:20 *162:14 4.34973e-05
41 *148:20 *202:31 1.22822e-05
42 *148:20 *202:35 0.000812951
43 *148:24 *204:10 0.000111401
44 *148:24 *204:27 0.000342367
45 *148:30 *1413:B1 0
46 *148:30 *1513:A2 2.33476e-05
47 *148:30 *181:87 0.000619169
48 *148:30 *204:10 0.00124269
49 *148:30 *229:20 0.000142841
50 *148:36 *161:10 8.41602e-05
51 *148:36 *164:23 0.000184276
52 *148:40 *209:46 0.000219094
53 *148:46 *171:20 0.000228923
54 *148:46 *174:47 0.000235375
55 *148:46 *199:27 0.00131569
56 *148:60 *211:14 0.000182826
57 *148:148 *172:18 0.000110383
58 *148:148 *174:53 9.70232e-05
59 *148:148 *183:34 0.000264559
60 *148:148 *197:33 0.000356743
61 *148:148 *202:35 0.000132374
62 *1386:B *148:10 0.000597817
63 *1416:B *1416:A 7.87782e-05
64 *1416:B *1520:A1 9.77405e-05
65 *1460:B_N *148:46 2.81066e-05
66 *1519:A1 *1413:A1 1.45436e-05
67 *1519:A1 *1519:A2 9.8173e-05
68 *1519:B1 *1519:A2 2.02872e-05
69 *1524:A2 *1524:B2 2.02872e-05
70 *1524:A2 *148:30 0.000157652
71 *30:14 *1524:B2 2.64616e-05
72 *30:14 *148:30 0.000150964
73 *31:14 *148:133 0.000185755
74 *31:20 *148:30 0
75 *31:28 *1413:A1 5.30121e-05
76 *31:28 *148:30 0
77 *33:8 *148:30 0.000241673
78 *33:14 *148:40 0.000904374
79 *38:31 *148:10 0.0017241
80 *39:20 *148:30 0
81 *53:70 *148:60 4.41307e-05
82 *55:31 *148:133 3.21591e-05
83 *60:41 *1518:A2 9.53734e-05
84 *63:10 *148:60 0.00115335
85 *64:10 *148:60 4.3925e-05
86 *67:12 *1518:A2 2.76611e-06
87 *67:12 *148:10 3.95971e-05
88 *91:28 *148:60 0.000184527
89 *98:10 *148:10 0.000128326
90 *107:10 *148:46 0.000825751
91 *107:10 *148:60 0.00115558
92 *117:20 *148:40 0.000508893
93 *121:10 *148:20 5.31444e-05
94 *121:10 *148:22 4.18957e-05
95 *121:10 *148:24 0.000101965
96 *129:10 *148:10 0.000209143
97 *129:36 *148:10 0.00110778
98 *129:46 *1518:A2 1.7992e-05
99 *129:46 *148:10 4.84916e-05
100 *131:95 *148:30 0.000548928
101 *131:119 *1416:A 3.97382e-05
102 *131:119 *1520:A1 9.77405e-05
103 *133:158 *1518:A2 0
104 *137:112 *148:148 4.15283e-06
105 *137:165 *1518:A2 9.84794e-05
106 *142:60 *148:133 6.80048e-05
107 *147:33 *148:22 0
108 *147:33 *148:24 0
*RES
1 *1404:X *148:8 41.48 
2 *148:8 *148:10 36.4157 
3 *148:10 *148:12 15 
4 *148:12 *148:14 12.5321 
5 *148:14 *148:20 40.0436 
6 *148:20 *148:22 1.20143 
7 *148:22 *148:24 8.94857 
8 *148:24 *148:30 41.3693 
9 *148:30 *148:36 32.61 
10 *148:36 *148:40 42.7779 
11 *148:40 *148:46 34.2021 
12 *148:46 *148:60 49.4921 
13 *148:60 *1521:A2 23 
14 *148:46 *1460:A 23 
15 *148:30 *1524:B2 23.6214 
16 *148:24 *148:79 15 
17 *148:79 *1413:A1 28.7379 
18 *148:79 *1519:A2 25.0714 
19 *148:22 *1520:A1 39.0979 
20 *148:20 *1416:A 41.5214 
21 *148:14 *148:133 33.6664 
22 *148:133 *1419:B 23 
23 *148:12 *148:148 49.4714 
24 *148:148 *1421:A 23.8493 
25 *148:8 *1518:A2 42.7643 
*END

*D_NET *149 0.0586398
*CONN
*I *1493:A I *D sky130_fd_sc_hd__nand3_2
*I *1428:B I *D sky130_fd_sc_hd__nand2_2
*I *1548:A1 I *D sky130_fd_sc_hd__a311o_1
*I *1421:B I *D sky130_fd_sc_hd__nand2_2
*I *1545:A1 I *D sky130_fd_sc_hd__a21oi_1
*I *1426:B I *D sky130_fd_sc_hd__and3_2
*I *1546:A1 I *D sky130_fd_sc_hd__o22a_1
*I *1494:A1 I *D sky130_fd_sc_hd__a21o_1
*I *1466:A I *D sky130_fd_sc_hd__xnor2_2
*I *1413:A2 I *D sky130_fd_sc_hd__a31o_2
*I *1405:X O *D sky130_fd_sc_hd__buf_4
*CAP
1 *1493:A 0
2 *1428:B 0
3 *1548:A1 0
4 *1421:B 0.000463212
5 *1545:A1 0
6 *1426:B 0
7 *1546:A1 0
8 *1494:A1 0
9 *1466:A 0.000558176
10 *1413:A2 0.000201874
11 *1405:X 0
12 *149:169 0.000748909
13 *149:145 0.00128737
14 *149:120 0.00175058
15 *149:108 0.00123059
16 *149:104 0.00185255
17 *149:91 0.000629834
18 *149:87 0.00214599
19 *149:73 0.00181851
20 *149:71 0.00184072
21 *149:67 0.0022242
22 *149:63 0.00181143
23 *149:61 0.00164169
24 *149:48 0.0022737
25 *149:22 0.000964174
26 *149:16 0.00132048
27 *149:14 0.00135411
28 *149:4 0.00323865
29 *1413:A2 *1415:B 2.97422e-05
30 *1413:A2 *157:12 1.23353e-05
31 *1413:A2 *204:8 2.92911e-06
32 *1421:B *150:16 0.000538273
33 *1421:B *196:95 0
34 *149:14 *160:12 0.000110227
35 *149:14 *186:71 0.00148982
36 *149:22 *1415:B 0
37 *149:22 *157:12 0.00012014
38 *149:48 *1404:A 9.84851e-05
39 *149:48 *225:97 0.000717713
40 *149:48 *229:74 0.000155763
41 *149:63 *155:10 0
42 *149:63 *172:12 8.94487e-05
43 *149:63 *192:10 0
44 *149:63 *230:58 0
45 *149:67 *1472:A2 0.000165034
46 *149:67 *172:12 2.35393e-05
47 *149:67 *181:36 5.75972e-05
48 *149:67 *186:59 0.000288682
49 *149:67 *186:89 0.000152676
50 *149:67 *194:18 0
51 *149:67 *204:83 0.000164072
52 *149:67 *224:23 0.000258374
53 *149:67 *230:58 0
54 *149:71 *166:10 0.000948859
55 *149:71 *185:46 8.56503e-06
56 *149:71 *204:38 5.77452e-05
57 *149:71 *204:83 6.95616e-05
58 *149:71 *205:38 0.00167232
59 *149:87 *176:10 0.000671945
60 *149:87 *186:18 9.92568e-05
61 *149:87 *188:75 2.34898e-05
62 *149:87 *188:115 3.52734e-05
63 *149:87 *212:22 0.00014199
64 *149:91 *158:45 3.66226e-06
65 *149:91 *176:24 0.000235503
66 *149:91 *226:44 9.28078e-06
67 *149:104 *1410:A3 0.000429894
68 *149:104 *152:20 0.000824571
69 *149:104 *177:28 8.62783e-05
70 *149:104 *204:46 3.3746e-05
71 *149:108 *1410:A3 0.000473042
72 *149:145 *150:16 0.000729461
73 *149:145 *181:59 1.35751e-05
74 *149:145 *187:18 9.64758e-05
75 *149:145 *196:95 0
76 *149:169 *155:20 0.000258607
77 *149:169 *212:22 0.00114358
78 *1410:A2 *149:108 2.02872e-05
79 *1426:A *149:108 5.61255e-06
80 *1493:C *149:169 7.25499e-05
81 *1545:A2 *149:73 2.64616e-05
82 *1551:A *149:73 7.43114e-05
83 *39:24 *149:22 0.00199612
84 *39:28 *1466:A 0.00113074
85 *39:28 *149:22 0.000274234
86 *44:20 *1421:B 7.33953e-05
87 *46:10 *149:71 4.88671e-05
88 *49:12 *149:71 0.00012656
89 *52:24 *149:145 0
90 *60:16 *1421:B 0
91 *60:26 *149:104 1.01436e-05
92 *60:35 *149:61 0
93 *60:35 *149:63 0
94 *63:6 *149:108 9.67842e-05
95 *65:16 *149:48 3.49854e-05
96 *65:16 *149:61 0.00181271
97 *65:16 *149:169 0.000195029
98 *66:8 *149:169 0.00016879
99 *74:26 *149:87 0.000257501
100 *78:22 *149:61 0.000310477
101 *78:22 *149:67 0.000110915
102 *85:22 *149:87 2.95166e-05
103 *92:16 *149:22 0.000410546
104 *114:10 *149:87 0.000786112
105 *114:10 *149:91 0.00145724
106 *116:10 *149:145 7.13284e-05
107 *117:20 *149:73 8.87746e-06
108 *117:20 *149:87 4.59435e-06
109 *118:8 *149:73 5.3793e-05
110 *131:58 *149:71 0.000308769
111 *131:121 *149:22 0.00134804
112 *133:150 *149:48 9.87468e-05
113 *133:158 *149:48 7.44354e-05
114 *133:158 *149:61 9.24795e-06
115 *135:55 *149:63 0
116 *135:55 *149:67 0.0001329
117 *136:69 *149:67 9.03784e-05
118 *136:73 *149:67 0.000730917
119 *136:73 *149:71 4.60157e-05
120 *137:26 *149:87 5.33597e-05
121 *137:26 *149:91 0.00142773
122 *137:43 *149:104 0.00029921
123 *137:101 *149:71 2.37093e-05
124 *137:148 *149:61 0.00176528
125 *141:10 *1421:B 7.07867e-05
126 *142:92 *149:145 0.000131972
127 *142:181 *149:169 9.41618e-05
128 *146:39 *149:108 0.000202911
129 *148:8 *149:48 0.000164499
*RES
1 *1405:X *149:4 23 
2 *149:4 *149:14 46.32 
3 *149:14 *149:16 15 
4 *149:16 *149:22 44.5593 
5 *149:22 *1413:A2 40.5271 
6 *149:16 *1466:A 36.0086 
7 *149:4 *149:48 37.5136 
8 *149:48 *1494:A1 23 
9 *149:48 *149:61 36.9054 
10 *149:61 *149:63 7.71607 
11 *149:63 *149:67 30.5225 
12 *149:67 *149:71 43.4925 
13 *149:71 *149:73 10.6264 
14 *149:73 *149:87 44.799 
15 *149:87 *149:91 35.2171 
16 *149:91 *1546:A1 23 
17 *149:87 *149:104 45.1629 
18 *149:104 *149:108 30.3907 
19 *149:108 *1426:B 23 
20 *149:73 *1545:A1 23 
21 *149:67 *149:120 8 
22 *149:120 *1421:B 48.1118 
23 *149:120 *149:145 27.3343 
24 *149:145 *1548:A1 23 
25 *149:63 *1428:B 38 
26 *149:61 *149:169 39.9659 
27 *149:169 *1493:A 23 
*END

*D_NET *150 0.0284616
*CONN
*I *1411:A1 I *D sky130_fd_sc_hd__a21o_1
*I *1412:A I *D sky130_fd_sc_hd__and3_1
*I *1406:X O *D sky130_fd_sc_hd__or3_4
*CAP
1 *1411:A1 5.15572e-05
2 *1412:A 0
3 *1406:X 0
4 *150:27 0.00150116
5 *150:20 0.000905436
6 *150:16 0.00463271
7 *150:10 0.00442957
8 *150:4 0.0021519
9 *1411:A1 *1411:B1 6.17437e-06
10 *150:10 *175:26 1.03654e-05
11 *150:10 *183:34 0.00257395
12 *150:16 *174:47 0.000217968
13 *150:20 *189:10 0.00200156
14 *150:27 *151:41 0.00118894
15 *150:27 *154:21 2.02217e-05
16 *150:27 *187:10 0.000181266
17 *1421:B *150:16 0.000538273
18 *36:8 *150:27 4.16764e-05
19 *45:23 *150:20 2.11157e-05
20 *45:23 *150:27 0.00163689
21 *45:29 *150:20 0.00249214
22 *47:41 *150:20 0.000125913
23 *49:18 *150:16 0.00134249
24 *49:55 *150:16 0.000289409
25 *52:24 *150:16 3.02903e-05
26 *65:16 *1411:A1 9.84794e-05
27 *66:12 *150:27 0.00119489
28 *76:16 *150:16 0
29 *98:10 *150:10 4.77461e-05
30 *134:12 *150:20 0
31 *134:23 *150:20 0
32 *134:23 *150:27 0
33 *149:145 *150:16 0.000729461
*RES
1 *1406:X *150:4 23 
2 *150:4 *150:10 44.8804 
3 *150:10 *150:16 21.7232 
4 *150:16 *150:20 48.7746 
5 *150:20 *1412:A 23 
6 *150:16 *150:27 39.7611 
7 *150:27 *1411:A1 39.0979 
*END

*D_NET *151 0.0202871
*CONN
*I *1411:A2 I *D sky130_fd_sc_hd__a21o_1
*I *1412:B I *D sky130_fd_sc_hd__and3_1
*I *1407:Y O *D sky130_fd_sc_hd__o21ai_2
*CAP
1 *1411:A2 8.29351e-06
2 *1412:B 5.67095e-05
3 *1407:Y 0.000158664
4 *151:41 0.000591464
5 *151:33 0.00228956
6 *151:22 0.00228691
7 *151:20 0.000939805
8 *151:10 0.000574664
9 *1411:A2 *1411:B1 3.97784e-06
10 *151:20 *228:51 0.000482992
11 *151:22 *154:10 0.000292846
12 *151:22 *226:69 0.000452045
13 *151:33 *154:10 0.000141778
14 *151:33 *154:21 0.00415177
15 *151:33 *156:8 0.000134767
16 *151:33 *196:68 0.0021642
17 *151:33 *196:95 0.000390681
18 *151:41 *154:21 0.0011611
19 *1407:A2 *151:10 5.5792e-05
20 *1502:A2 *1412:B 1.59094e-05
21 *1508:B *151:22 0.00110281
22 *45:21 *151:41 4.67488e-05
23 *46:10 *151:10 0.00022913
24 *59:8 *151:22 0.000236732
25 *59:31 *151:22 7.65883e-06
26 *108:20 *151:10 9.22783e-05
27 *143:10 *151:33 0.000539001
28 *143:26 *151:33 0.000103953
29 *143:30 *151:22 6.80371e-05
30 *143:30 *151:33 0.000230625
31 *144:51 *151:10 8.72142e-05
32 *150:27 *151:41 0.00118894
*RES
1 *1407:Y *151:10 41.9357 
2 *151:10 *151:20 36.8564 
3 *151:20 *151:22 17.0479 
4 *151:22 *1412:B 38.6214 
5 *151:22 *151:33 58.2486 
6 *151:33 *151:41 47.4414 
7 *151:41 *1411:A2 38.1968 
*END

*D_NET *152 0.0168323
*CONN
*I *1410:A3 I *D sky130_fd_sc_hd__a31o_1
*I *1417:B I *D sky130_fd_sc_hd__and2b_1
*I *1408:X O *D sky130_fd_sc_hd__a22o_1
*CAP
1 *1410:A3 0.000693922
2 *1417:B 0
3 *1408:X 4.72417e-05
4 *152:20 0.00230228
5 *152:16 0.00390131
6 *152:8 0.000952347
7 *1410:A3 *154:10 2.43944e-05
8 *152:16 *1408:A1 2.35393e-05
9 *152:16 *158:14 0.000170889
10 *152:16 *220:22 0.00078734
11 *152:16 *220:32 0.000682562
12 *152:20 *1417:A_N 0.000110533
13 *152:20 *161:8 2.87244e-05
14 *1426:A *1410:A3 2.64616e-05
15 *1490:B1 *1410:A3 0.000245626
16 *34:29 *152:20 0.000341983
17 *35:41 *152:16 0.000426441
18 *35:55 *152:16 0.000133658
19 *35:61 *152:16 0.00021036
20 *40:20 *152:20 0.00017761
21 *41:8 *152:20 9.67842e-05
22 *63:6 *1410:A3 0.000501803
23 *63:6 *152:20 0.00115769
24 *99:6 *152:20 0.000142011
25 *118:10 *152:16 1.06693e-05
26 *134:117 *152:8 5.3304e-05
27 *134:134 *152:16 4.6318e-06
28 *135:22 *152:16 0.000956116
29 *135:28 *152:16 3.22801e-05
30 *137:32 *152:20 0.000733896
31 *137:43 *152:20 8.48502e-06
32 *141:26 *152:16 0.000119944
33 *149:104 *1410:A3 0.000429894
34 *149:104 *152:20 0.000824571
35 *149:108 *1410:A3 0.000473042
*RES
1 *1408:X *152:8 38.6214 
2 *152:8 *152:16 41.97 
3 *152:16 *152:20 46.8557 
4 *152:20 *1417:B 23 
5 *152:16 *1410:A3 39.3436 
*END

*D_NET *153 0.0233203
*CONN
*I *1410:B1 I *D sky130_fd_sc_hd__a31o_1
*I *1417:A_N I *D sky130_fd_sc_hd__and2b_1
*I *1409:X O *D sky130_fd_sc_hd__and4_1
*CAP
1 *1410:B1 0
2 *1417:A_N 0.000205241
3 *1409:X 0.000133295
4 *153:39 6.68412e-05
5 *153:33 0.00130448
6 *153:22 0.00140039
7 *153:12 0.00243279
8 *153:10 0.00137408
9 *153:8 0.00150738
10 *1417:A_N *161:8 0.000175903
11 *1417:A_N *206:31 0.000181174
12 *153:8 *211:64 5.3304e-05
13 *153:8 *230:41 4.05745e-05
14 *153:10 *169:10 2.05503e-05
15 *153:10 *169:20 0.00016102
16 *153:10 *195:20 0.000226352
17 *153:10 *211:56 0.000958036
18 *153:22 *1556:A1 0.00021677
19 *153:22 *156:22 0.00017761
20 *153:22 *192:32 0.0010451
21 *153:22 *200:28 0.000224323
22 *153:22 *201:31 0.000160191
23 *153:22 *225:70 0.000310914
24 *153:33 *192:32 0.00130341
25 *153:33 *200:28 0.0031439
26 *153:39 *200:34 0.000138718
27 *30:10 *153:10 0.000524103
28 *30:27 *153:10 0.000772916
29 *33:26 *153:10 0.000454968
30 *33:45 *153:10 0.00231811
31 *55:14 *153:10 7.68979e-05
32 *66:32 *153:10 0.000149785
33 *67:24 *153:10 0.000130443
34 *68:8 *153:10 1.31913e-05
35 *73:23 *153:39 1.12487e-05
36 *79:14 *153:33 4.59166e-05
37 *91:16 *153:22 0.00015795
38 *95:26 *153:22 0.000175903
39 *123:6 *153:22 0.000739727
40 *136:96 *153:33 0.000509763
41 *136:100 *153:39 0.000166522
42 *152:20 *1417:A_N 0.000110533
*RES
1 *1409:X *153:8 39.5743 
2 *153:8 *153:10 42.05 
3 *153:10 *153:12 15 
4 *153:12 *153:22 43.2957 
5 *153:22 *1417:A_N 42.4329 
6 *153:12 *153:33 36.3536 
7 *153:33 *153:39 32.2579 
8 *153:39 *1410:B1 23 
*END

*D_NET *154 0.0156471
*CONN
*I *1411:B1 I *D sky130_fd_sc_hd__a21o_1
*I *1412:C I *D sky130_fd_sc_hd__and3_1
*I *1410:X O *D sky130_fd_sc_hd__a31o_1
*CAP
1 *1411:B1 7.56175e-05
2 *1412:C 1.83048e-05
3 *1410:X 0.000302392
4 *154:21 0.00214079
5 *154:10 0.00238587
6 *1412:C *183:14 1.95448e-05
7 *154:21 *155:10 0
8 *1410:A3 *154:10 2.43944e-05
9 *1411:A1 *1411:B1 6.17437e-06
10 *1411:A2 *1411:B1 3.97784e-06
11 *1490:B1 *154:10 5.50049e-05
12 *45:23 *154:21 0.00164969
13 *45:29 *154:10 0.000237222
14 *45:29 *154:21 0.00246969
15 *59:31 *154:10 0.000160191
16 *65:16 *1411:B1 3.34129e-05
17 *143:10 *154:21 0.000297157
18 *150:27 *154:21 2.02217e-05
19 *151:22 *154:10 0.000292846
20 *151:33 *154:10 0.000141778
21 *151:33 *154:21 0.00415177
22 *151:41 *154:21 0.0011611
*RES
1 *1410:X *154:10 45.3536 
2 *154:10 *1412:C 38.2279 
3 *154:10 *154:21 72.3343 
4 *154:21 *1411:B1 39.595 
*END

*D_NET *155 0.0309217
*CONN
*I *1422:B I *D sky130_fd_sc_hd__and2b_2
*I *1413:A3 I *D sky130_fd_sc_hd__a31o_2
*I *1411:X O *D sky130_fd_sc_hd__a21o_1
*CAP
1 *1422:B 0
2 *1413:A3 7.54296e-05
3 *1411:X 0.000137726
4 *155:55 0.00241724
5 *155:32 0.00296783
6 *155:28 0.00300331
7 *155:20 0.00826328
8 *155:10 0.00587286
9 *1413:A3 *157:12 2.78373e-05
10 *155:20 *1448:B 0.000150503
11 *155:20 *167:24 0.000167083
12 *155:20 *168:18 4.93791e-05
13 *155:20 *169:20 0.00051301
14 *155:20 *169:45 0.000137814
15 *155:20 *172:18 0.000115647
16 *155:20 *174:47 0.000851932
17 *155:20 *185:10 0.000129942
18 *155:20 *198:26 8.92521e-05
19 *155:20 *199:63 0.000225404
20 *155:20 *212:22 0.000469312
21 *155:20 *225:107 0.000256913
22 *155:28 *169:45 4.01402e-05
23 *155:28 *195:16 5.09072e-05
24 *155:32 *1591:A 0.000108723
25 *155:32 *223:8 0.000210786
26 *155:32 *230:18 2.81066e-05
27 *155:55 *169:45 0.00104856
28 *155:55 *184:10 1.0092e-05
29 *155:55 *200:53 0.000463192
30 *155:55 *211:14 7.80302e-05
31 *30:33 *155:28 4.82745e-05
32 *32:26 *155:55 3.10833e-05
33 *33:26 *155:55 0.000262739
34 *40:29 *155:32 0.000114824
35 *42:42 *155:20 0.00013127
36 *45:17 *155:20 0.000128683
37 *66:32 *155:20 2.53887e-05
38 *66:36 *155:55 0.000205235
39 *67:24 *155:20 0
40 *67:24 *155:55 0.000226523
41 *69:14 *155:55 0.000410002
42 *78:22 *155:20 0.00011565
43 *88:12 *155:20 4.93791e-05
44 *106:24 *155:20 0.000398637
45 *109:18 *155:32 7.74693e-05
46 *133:168 *155:20 0.00012408
47 *137:112 *155:20 0.00015426
48 *137:131 *155:20 0.000151253
49 *147:33 *1413:A3 4.80826e-05
50 *149:63 *155:10 0
51 *149:169 *155:20 0.000258607
52 *154:21 *155:10 0
*RES
1 *1411:X *155:10 47.7296 
2 *155:10 *155:20 30.9389 
3 *155:20 *155:28 23.858 
4 *155:28 *155:32 48.495 
5 *155:32 *1413:A3 39.5536 
6 *155:20 *155:55 47.7179 
7 *155:55 *1422:B 23 
*END

*D_NET *156 0.0235955
*CONN
*I *1413:B1 I *D sky130_fd_sc_hd__a31o_2
*I *1422:A_N I *D sky130_fd_sc_hd__and2b_2
*I *1412:X O *D sky130_fd_sc_hd__and3_1
*CAP
1 *1413:B1 0.000179929
2 *1422:A_N 0
3 *1412:X 6.66645e-05
4 *156:41 0.00285725
5 *156:37 0.00320911
6 *156:28 0.000576808
7 *156:22 0.000885517
8 *156:14 0.000840499
9 *156:12 0.00131185
10 *156:10 0.00131185
11 *156:8 6.66645e-05
12 *156:12 *193:50 0.00021677
13 *156:12 *193:66 0.000889236
14 *156:12 *205:21 0.00244818
15 *156:12 *205:34 0.000125096
16 *156:12 *205:53 0.000335646
17 *156:22 *192:32 0.000175903
18 *156:22 *195:16 0.00023379
19 *156:22 *209:50 0.000137744
20 *156:28 *169:45 0.00022211
21 *156:28 *179:40 2.47015e-05
22 *156:28 *179:42 1.22093e-05
23 *156:28 *184:14 0.000115567
24 *156:28 *195:30 0.000136743
25 *156:37 *181:8 0.000443749
26 *156:37 *181:70 0.000228962
27 *156:37 *195:16 0.00130959
28 *156:37 *209:50 0.000270532
29 *156:41 *1449:C 0.000108256
30 *156:41 *179:20 6.70361e-05
31 *156:41 *208:28 4.71384e-05
32 *156:41 *209:16 8.43466e-05
33 *30:6 *156:12 0.000996114
34 *30:33 *156:37 9.26005e-05
35 *31:20 *1413:B1 3.70187e-05
36 *31:28 *1413:B1 0.000299169
37 *33:26 *156:22 0.00024932
38 *39:20 *156:41 1.32314e-05
39 *69:14 *156:22 1.30556e-05
40 *69:14 *156:37 0.000136359
41 *91:14 *156:41 0.000144061
42 *95:26 *156:22 0.000161121
43 *95:30 *156:28 0.000939709
44 *112:10 *156:22 7.31043e-06
45 *112:10 *156:28 0.000996886
46 *143:30 *156:8 0.000134767
47 *147:25 *156:41 0.000111709
48 *147:33 *1413:B1 1.12919e-05
49 *148:30 *1413:B1 0
50 *151:33 *156:8 0.000134767
51 *153:22 *156:22 0.00017761
*RES
1 *1412:X *156:8 39.9057 
2 *156:8 *156:10 15 
3 *156:10 *156:12 35.8771 
4 *156:12 *156:14 15 
5 *156:14 *156:22 37.83 
6 *156:22 *156:28 32.4829 
7 *156:28 *1422:A_N 23 
8 *156:14 *156:37 33.1043 
9 *156:37 *156:41 46.5893 
10 *156:41 *1413:B1 42.3707 
*END

*D_NET *157 0.0150711
*CONN
*I *1415:B I *D sky130_fd_sc_hd__xor2_2
*I *1414:B I *D sky130_fd_sc_hd__nand2_2
*I *1413:X O *D sky130_fd_sc_hd__a31o_2
*CAP
1 *1415:B 0.000674946
2 *1414:B 0.000262827
3 *1413:X 0
4 *157:14 0.00345506
5 *157:12 0.00364381
6 *157:4 0.00112653
7 *1414:B *158:8 4.96717e-05
8 *1414:B *181:12 0.000457511
9 *1415:B *204:8 0.000188927
10 *157:12 *204:8 5.56356e-05
11 *157:12 *206:83 0.000365817
12 *157:14 *181:12 0.000554783
13 *1413:A1 *1415:B 3.7122e-06
14 *1413:A2 *1415:B 2.97422e-05
15 *1413:A2 *157:12 1.23353e-05
16 *1413:A3 *157:12 2.78373e-05
17 *39:24 *157:12 3.01561e-05
18 *56:58 *157:12 0.000253061
19 *70:12 *157:14 0.0001262
20 *122:22 *157:14 0.00241011
21 *147:33 *1415:B 0.00122225
22 *149:22 *1415:B 0
23 *149:22 *157:12 0.00012014
*RES
1 *1413:X *157:4 23 
2 *157:4 *157:12 42.035 
3 *157:12 *157:14 54.6961 
4 *157:14 *1414:B 28.9968 
5 *157:4 *1415:B 48.3943 
*END

*D_NET *158 0.0286602
*CONN
*I *1434:A I *D sky130_fd_sc_hd__and3_1
*I *1433:A1 I *D sky130_fd_sc_hd__a21oi_2
*I *1496:A1 I *D sky130_fd_sc_hd__a21o_1
*I *1414:Y O *D sky130_fd_sc_hd__nand2_2
*CAP
1 *1434:A 0.000110363
2 *1433:A1 0
3 *1496:A1 0.000935004
4 *1414:Y 0.000101711
5 *158:59 0.00271729
6 *158:55 0.00297338
7 *158:49 0.000572618
8 *158:45 0.00146044
9 *158:33 0.00195886
10 *158:14 0.002692
11 *158:8 0.00115412
12 *1434:A *220:34 0.00022093
13 *1496:A1 *195:63 0.0011513
14 *158:8 *181:12 1.40958e-05
15 *158:14 *195:63 0.000343532
16 *158:33 *1559:A1 6.47194e-05
17 *158:33 *189:16 5.27215e-06
18 *158:33 *220:22 9.7015e-05
19 *158:45 *176:24 0.000137075
20 *158:45 *176:28 0.000214426
21 *158:45 *197:37 0.000646818
22 *158:45 *212:12 2.47132e-05
23 *158:45 *226:44 5.36496e-06
24 *158:49 *220:34 0.000351513
25 *158:55 *176:55 0
26 *158:55 *186:32 0.000253869
27 *158:59 *1433:A2 4.84155e-05
28 *158:59 *168:44 0.00401199
29 *1414:B *158:8 4.96717e-05
30 *1559:A3 *158:33 0.000218476
31 *34:12 *158:33 8.4047e-05
32 *35:63 *158:14 1.68056e-05
33 *44:20 *158:14 0.000645834
34 *48:28 *158:14 0.000177552
35 *63:44 *158:45 0.000302789
36 *88:24 *158:45 0.000169049
37 *104:26 *158:45 0.000412569
38 *118:10 *158:14 4.25971e-05
39 *126:8 *158:33 9.5877e-05
40 *130:67 *158:33 5.42515e-05
41 *130:73 *158:33 2.18409e-05
42 *135:28 *158:14 0.00103317
43 *137:26 *158:45 0.000828145
44 *141:16 *158:14 0.000695185
45 *141:26 *158:14 0.000909026
46 *142:123 *158:45 0.000353535
47 *142:131 *158:45 0.000108361
48 *149:91 *158:45 3.66226e-06
49 *152:16 *158:14 0.000170889
*RES
1 *1414:Y *158:8 39.5743 
2 *158:8 *158:14 44.1036 
3 *158:14 *1496:A1 36.0086 
4 *158:14 *158:33 40.8957 
5 *158:33 *158:45 47.6664 
6 *158:45 *158:49 18.9564 
7 *158:49 *158:55 34.3707 
8 *158:55 *158:59 45.3021 
9 *158:59 *1433:A1 23 
10 *158:49 *1434:A 25.5271 
*END

*D_NET *159 0.0126039
*CONN
*I *1424:C I *D sky130_fd_sc_hd__nand3_4
*I *1556:B1 I *D sky130_fd_sc_hd__a21o_1
*I *1415:X O *D sky130_fd_sc_hd__xor2_2
*CAP
1 *1424:C 0
2 *1556:B1 0
3 *1415:X 0.000349587
4 *159:21 0.000909363
5 *159:10 0.00144429
6 *159:8 0.00270324
7 *159:10 *1420:B 2.24608e-05
8 *159:10 *162:14 0.000374011
9 *159:10 *163:12 1.89075e-05
10 *159:10 *163:14 0.00150096
11 *159:10 *163:16 0.00141867
12 *159:10 *202:31 0.000133316
13 *159:21 *162:14 0.00107698
14 *159:21 *164:10 0.000304622
15 *159:21 *203:31 0.000168211
16 *1516:A3 *159:21 9.67335e-06
17 *33:14 *159:10 8.57485e-05
18 *69:35 *159:10 0
19 *81:32 *159:21 4.78343e-05
20 *85:10 *159:10 0.000624504
21 *111:24 *159:10 0.000537247
22 *111:24 *159:21 0.000148623
23 *120:27 *159:10 0.000353814
24 *120:35 *159:10 0
25 *120:35 *159:21 0
26 *131:76 *159:10 0.000324869
27 *131:119 *159:10 4.6955e-05
28 *144:58 *159:10 0
*RES
1 *1415:X *159:8 42.9093 
2 *159:8 *159:10 44.8671 
3 *159:10 *1556:B1 38 
4 *159:8 *159:21 38.0343 
5 *159:21 *1424:C 23 
*END

*D_NET *160 0.00505843
*CONN
*I *1418:A I *D sky130_fd_sc_hd__xnor2_2
*I *1416:Y O *D sky130_fd_sc_hd__nand2_1
*CAP
1 *1418:A 0.000739015
2 *1416:Y 4.30128e-05
3 *160:12 0.00174931
4 *160:8 0.00105331
5 *160:12 *186:71 0.000223805
6 *160:12 *202:14 0
7 *1416:A *160:8 7.51453e-06
8 *53:126 *1418:A 0.000454068
9 *87:14 *1418:A 7.02666e-05
10 *121:10 *160:12 0
11 *131:119 *160:8 1.24365e-05
12 *147:33 *160:12 0.000595464
13 *148:20 *160:12 0
14 *149:14 *160:12 0.000110227
*RES
1 *1416:Y *160:8 38.6214 
2 *160:8 *160:12 37.33 
3 *160:12 *1418:A 36.5057 
*END

*D_NET *161 0.0119363
*CONN
*I *1418:B I *D sky130_fd_sc_hd__xnor2_2
*I *1417:X O *D sky130_fd_sc_hd__and2b_1
*CAP
1 *1418:B 0
2 *1417:X 0.000242864
3 *161:10 0.00207461
4 *161:8 0.00231747
5 *161:10 *164:10 0
6 *161:10 *164:23 0.000191558
7 *161:10 *201:23 0.000530354
8 *161:10 *201:27 0.000583068
9 *161:10 *227:45 0.000489224
10 *1417:A_N *161:8 0.000175903
11 *1497:A *161:10 0.00021739
12 *68:31 *161:10 0.00117928
13 *69:35 *161:10 1.34354e-05
14 *70:12 *161:10 0.0010528
15 *89:10 *161:10 0.000342536
16 *91:16 *161:10 0.00178681
17 *104:22 *161:10 0.000385699
18 *143:58 *161:10 0.000240426
19 *148:36 *161:10 8.41602e-05
20 *152:20 *161:8 2.87244e-05
*RES
1 *1417:X *161:8 41.0036 
2 *161:8 *161:10 61.4179 
3 *161:10 *1418:B 38 
*END

*D_NET *162 0.0207835
*CONN
*I *1534:A1 I *D sky130_fd_sc_hd__o21ai_1
*I *1420:A I *D sky130_fd_sc_hd__and2_2
*I *1418:Y O *D sky130_fd_sc_hd__xnor2_2
*CAP
1 *1534:A1 7.05383e-05
2 *1420:A 0.000131783
3 *1418:Y 3.8372e-05
4 *162:29 0.00182373
5 *162:27 0.00235309
6 *162:14 0.00138212
7 *162:8 0.000688805
8 *1420:A *1420:B 0.000394906
9 *1420:A *164:6 0.000209372
10 *1534:A1 *1534:A2 1.76557e-05
11 *1534:A1 *191:16 0.000225393
12 *162:14 *1420:B 0.000125213
13 *162:14 *164:6 6.68795e-05
14 *162:14 *164:10 0.00139259
15 *162:14 *202:31 9.64943e-05
16 *162:27 *163:12 2.15048e-05
17 *162:27 *163:14 6.07084e-05
18 *162:27 *207:21 0.000451669
19 *162:27 *229:47 0.000166397
20 *162:29 *163:14 0.000201176
21 *162:29 *163:16 0.00428708
22 *162:29 *177:10 0.000196111
23 *1534:B1 *1534:A1 9.41704e-05
24 *53:126 *162:8 0.000141352
25 *87:14 *162:8 0.000141352
26 *90:10 *162:27 3.85353e-05
27 *91:14 *162:27 0.00100424
28 *103:8 *1534:A1 2.32004e-05
29 *109:18 *162:27 0.000226355
30 *109:18 *162:29 1.40281e-05
31 *109:20 *162:29 0.00212048
32 *111:24 *162:14 0.000190108
33 *111:24 *162:29 0.000694334
34 *120:35 *162:27 0.000199278
35 *148:20 *162:14 4.34973e-05
36 *159:10 *162:14 0.000374011
37 *159:21 *162:14 0.00107698
*RES
1 *1418:Y *162:8 39.5743 
2 *162:8 *162:14 37.04 
3 *162:14 *1420:A 27.4329 
4 *162:14 *162:27 34.2021 
5 *162:27 *162:29 61.4179 
6 *162:29 *1534:A1 40.5271 
*END

*D_NET *163 0.0303936
*CONN
*I *1420:B I *D sky130_fd_sc_hd__and2_2
*I *1525:A_N I *D sky130_fd_sc_hd__and3b_1
*I *1534:A2 I *D sky130_fd_sc_hd__o21ai_1
*I *1419:X O *D sky130_fd_sc_hd__and4_2
*CAP
1 *1420:B 0.00023126
2 *1525:A_N 0
3 *1534:A2 0.00018253
4 *1419:X 0.00144178
5 *163:33 0.00145574
6 *163:31 0.00257368
7 *163:16 0.00172544
8 *163:14 0.00324926
9 *163:12 0.000954335
10 *163:6 0.00157643
11 *1420:B *164:6 3.18142e-05
12 *163:6 *201:71 0.000642207
13 *163:6 *202:31 5.3304e-05
14 *163:12 *202:31 0.000110913
15 *163:16 *206:35 0.000457208
16 *163:16 *206:43 0.000811671
17 *163:31 *181:70 0.000582938
18 *163:33 *181:70 0.000990364
19 *1420:A *1420:B 0.000394906
20 *1534:A1 *1534:A2 1.76557e-05
21 *56:71 *163:33 0.000383374
22 *56:73 *163:33 0.000175952
23 *85:10 *163:31 9.41704e-05
24 *90:10 *163:14 0.000587616
25 *91:14 *163:14 0.000240637
26 *95:6 *163:33 0.00202078
27 *103:8 *1534:A2 0.000179936
28 *111:24 *163:14 0.000293181
29 *111:24 *163:16 0.000762231
30 *120:10 *163:16 5.15821e-05
31 *120:27 *163:16 3.53893e-05
32 *120:35 *163:12 3.96156e-05
33 *148:20 *1420:B 0.000389027
34 *159:10 *1420:B 2.24608e-05
35 *159:10 *163:12 1.89075e-05
36 *159:10 *163:14 0.00150096
37 *159:10 *163:16 0.00141867
38 *162:14 *1420:B 0.000125213
39 *162:27 *163:12 2.15048e-05
40 *162:27 *163:14 6.07084e-05
41 *162:29 *163:14 0.000201176
42 *162:29 *163:16 0.00428708
*RES
1 *1419:X *163:6 40.7729 
2 *163:6 *163:12 18.0554 
3 *163:12 *163:14 20.3932 
4 *163:14 *163:16 57.5443 
5 *163:16 *1534:A2 40.5271 
6 *163:14 *163:31 29.4586 
7 *163:31 *163:33 33.9714 
8 *163:33 *1525:A_N 23 
9 *163:12 *1420:B 45.1361 
*END

*D_NET *164 0.0249493
*CONN
*I *1539:A1 I *D sky130_fd_sc_hd__o21bai_1
*I *1544:A I *D sky130_fd_sc_hd__xor2_1
*I *1556:A1 I *D sky130_fd_sc_hd__a21o_1
*I *1424:B I *D sky130_fd_sc_hd__nand3_4
*I *1420:X O *D sky130_fd_sc_hd__and2_2
*CAP
1 *1539:A1 4.52217e-05
2 *1544:A 0
3 *1556:A1 0.000293601
4 *1424:B 0
5 *1420:X 0.00070053
6 *164:54 0.000898398
7 *164:48 0.00114494
8 *164:38 0.000812602
9 *164:23 0.00202604
10 *164:21 0.0015469
11 *164:10 0.0010447
12 *164:6 0.00208053
13 *1556:A1 *184:20 0.000261656
14 *1556:A1 *192:32 8.11489e-05
15 *164:6 *202:31 0.000136743
16 *164:10 *167:64 0
17 *164:21 *202:35 0.000105749
18 *164:23 *184:20 0.000160348
19 *164:23 *188:96 0.000591534
20 *164:23 *227:45 4.41039e-05
21 *164:48 *179:40 2.05503e-05
22 *164:48 *222:31 0
23 *164:54 *1544:B 0.000405649
24 *164:54 *195:30 0.000407208
25 *164:54 *195:52 2.66057e-05
26 *164:54 *226:27 0.000450326
27 *164:54 *228:43 0.000315273
28 *1420:A *164:6 0.000209372
29 *1420:B *164:6 3.18142e-05
30 *1558:B1 *164:54 2.193e-05
31 *33:26 *164:54 0.000220502
32 *55:14 *1539:A1 4.05745e-05
33 *55:14 *164:38 0.000189095
34 *55:20 *164:38 0.000582129
35 *66:36 *164:54 0
36 *69:35 *164:10 0.000259963
37 *70:12 *164:23 0.000449755
38 *79:14 *164:48 0.000135037
39 *89:10 *164:10 0
40 *89:10 *164:23 0.000885349
41 *95:18 *164:48 8.94487e-05
42 *95:26 *164:54 0.000133316
43 *103:10 *1556:A1 0.000263887
44 *103:10 *164:23 2.55642e-05
45 *103:18 *1539:A1 9.41704e-05
46 *103:18 *164:38 0.00145541
47 *104:22 *164:23 0.000325416
48 *112:10 *164:48 2.22137e-05
49 *112:10 *164:54 0.00165875
50 *123:6 *1556:A1 0.000381942
51 *142:49 *164:23 0.00134066
52 *143:52 *164:21 0.000175903
53 *148:36 *164:23 0.000184276
54 *153:22 *1556:A1 0.00021677
55 *159:21 *164:10 0.000304622
56 *161:10 *164:10 0
57 *161:10 *164:23 0.000191558
58 *162:14 *164:6 6.68795e-05
59 *162:14 *164:10 0.00139259
*RES
1 *1420:X *164:6 32.1971 
2 *164:6 *164:10 42.26 
3 *164:10 *1424:B 38 
4 *164:6 *164:21 19.4329 
5 *164:21 *164:23 37.4721 
6 *164:23 *1556:A1 46.0993 
7 *164:23 *164:38 31.3436 
8 *164:38 *164:48 48.8321 
9 *164:48 *164:54 43.6479 
10 *164:54 *1544:A 23 
11 *164:38 *1539:A1 24.0979 
*END

*D_NET *165 0.00698025
*CONN
*I *1423:B I *D sky130_fd_sc_hd__xnor2_4
*I *1421:Y O *D sky130_fd_sc_hd__nand2_2
*CAP
1 *1423:B 0
2 *1421:Y 0.000158238
3 *165:16 0.00128074
4 *165:8 0.00143898
5 *165:8 *171:10 0.000178227
6 *165:16 *166:16 2.31687e-05
7 *165:16 *167:10 0.000340048
8 *165:16 *169:20 2.65812e-05
9 *165:16 *173:41 0.000949034
10 *165:16 *178:18 0.000402256
11 *165:16 *228:78 0.00160121
12 *88:24 *165:16 0.000102381
13 *130:43 *165:16 0.000479394
*RES
1 *1421:Y *165:8 40.0507 
2 *165:8 *165:16 47.3971 
3 *165:16 *1423:B 23 
*END

*D_NET *166 0.0160668
*CONN
*I *1423:A I *D sky130_fd_sc_hd__xnor2_4
*I *1422:X O *D sky130_fd_sc_hd__and2b_2
*CAP
1 *1423:A 0
2 *1422:X 0.00189935
3 *166:16 0.000948871
4 *166:10 0.00196927
5 *166:8 0.0010204
6 *166:6 0.00189935
7 *166:6 *183:168 0.00207024
8 *166:6 *228:43 1.73155e-05
9 *166:10 *204:38 3.79257e-05
10 *166:10 *205:38 0.000125187
11 *166:16 *188:128 9.67842e-05
12 *166:16 *228:78 0.00122847
13 *46:10 *166:10 0.000359669
14 *78:22 *166:10 0.000329049
15 *108:20 *166:10 0.00122712
16 *131:58 *166:10 0.00186579
17 *149:71 *166:10 0.000948859
18 *165:16 *166:16 2.31687e-05
*RES
1 *1422:X *166:6 48.8721 
2 *166:6 *166:8 15 
3 *166:8 *166:10 35.3593 
4 *166:10 *166:16 31.8407 
5 *166:16 *1423:A 23 
*END

*D_NET *167 0.0383177
*CONN
*I *1424:A I *D sky130_fd_sc_hd__nand3_4
*I *1556:A2 I *D sky130_fd_sc_hd__a21o_1
*I *1544:B I *D sky130_fd_sc_hd__xor2_1
*I *1423:Y O *D sky130_fd_sc_hd__xnor2_4
*CAP
1 *1424:A 0
2 *1556:A2 0
3 *1544:B 0.000967783
4 *1423:Y 0.000637778
5 *167:64 0.00272935
6 *167:38 0.00150766
7 *167:34 0.00240302
8 *167:24 0.00860877
9 *167:10 0.00465406
10 *1544:B *195:52 0.000181794
11 *1544:B *226:14 0.00143001
12 *1544:B *226:27 0.000229751
13 *167:10 *183:18 0.000180012
14 *167:10 *196:68 5.34681e-05
15 *167:24 *168:18 0.000704046
16 *167:24 *169:20 0.000534357
17 *167:24 *169:45 0.000554154
18 *167:24 *198:26 0.00108624
19 *167:24 *222:45 0.00085506
20 *167:34 *188:96 0.000326792
21 *167:34 *230:20 0.000115828
22 *167:64 *188:96 0.000209079
23 *167:64 *229:47 0.000152636
24 *167:64 *230:18 0.000191591
25 *1558:B1 *1544:B 0.00083489
26 *40:14 *167:64 0.000103342
27 *41:10 *167:64 0.000212517
28 *52:24 *167:34 0.000313027
29 *53:24 *167:34 0.000996192
30 *53:24 *167:64 0.00134373
31 *76:16 *167:24 0.000130071
32 *81:32 *167:34 1.0465e-05
33 *81:32 *167:64 0.000104708
34 *84:26 *167:24 8.95935e-05
35 *89:10 *167:64 0.000286133
36 *104:22 *167:34 0.000222692
37 *104:22 *167:64 0.000117597
38 *111:24 *167:38 0.000224273
39 *111:24 *167:64 0
40 *120:10 *167:38 0.000824658
41 *120:27 *167:34 3.85415e-05
42 *120:27 *167:38 0.00085039
43 *128:8 *167:34 0.000127524
44 *130:154 *167:24 0
45 *133:18 *167:64 0.000116327
46 *133:20 *167:64 0.000226702
47 *136:90 *167:24 2.29577e-05
48 *142:49 *167:34 0.000186663
49 *144:10 *167:38 0.000168524
50 *144:58 *167:34 4.73652e-05
51 *144:58 *167:38 0.0014928
52 *155:20 *167:24 0.000167083
53 *164:10 *167:64 0
54 *164:54 *1544:B 0.000405649
55 *165:16 *167:10 0.000340048
*RES
1 *1423:Y *167:10 47.7254 
2 *167:10 *167:24 25.8056 
3 *167:24 *167:34 22.8089 
4 *167:34 *167:38 37.33 
5 *167:38 *1544:B 48.8721 
6 *167:34 *1556:A2 38 
7 *167:24 *167:64 41.9862 
8 *167:64 *1424:A 23 
*END

*D_NET *168 0.0354413
*CONN
*I *1559:A1 I *D sky130_fd_sc_hd__a31o_1
*I *1434:B I *D sky130_fd_sc_hd__and3_1
*I *1433:A2 I *D sky130_fd_sc_hd__a21oi_2
*I *1424:Y O *D sky130_fd_sc_hd__nand3_4
*CAP
1 *1559:A1 5.10525e-05
2 *1434:B 4.30532e-05
3 *1433:A2 0.000105446
4 *1424:Y 0
5 *168:44 0.00102326
6 *168:40 0.00108281
7 *168:36 0.00174609
8 *168:30 0.00183432
9 *168:18 0.00250489
10 *168:12 0.00344319
11 *168:8 0.00285463
12 *168:4 0.001569
13 *1433:A2 *177:10 1.35999e-05
14 *168:8 *203:35 0.000143872
15 *168:12 *172:18 0.0029331
16 *168:12 *199:27 0.000280613
17 *168:12 *199:31 0.000528977
18 *168:12 *199:42 0.000265999
19 *168:12 *199:63 0.00139021
20 *168:18 *169:20 0.000325657
21 *168:18 *186:18 0
22 *168:18 *186:26 0.000816799
23 *168:18 *188:115 2.76249e-05
24 *168:30 *183:168 9.17507e-05
25 *168:30 *186:26 3.91699e-05
26 *168:30 *228:43 0.000272248
27 *168:36 *1446:B2 0.00038065
28 *168:36 *176:55 5.87548e-05
29 *168:36 *181:139 0
30 *168:36 *186:28 0
31 *168:36 *186:32 0
32 *168:36 *220:32 0
33 *168:36 *225:44 8.4047e-05
34 *168:40 *176:55 4.96024e-05
35 *168:44 *176:36 0.00196674
36 *168:44 *177:10 1.12268e-05
37 *168:44 *186:34 0.000408195
38 *168:44 *213:20 5.56356e-05
39 *1559:B1 *168:30 0.000242151
40 *1559:B1 *168:36 0
41 *34:12 *168:36 0.000335572
42 *48:16 *168:36 1.28427e-05
43 *48:45 *168:36 0
44 *75:14 *168:18 0.00178896
45 *104:30 *168:44 0.000150071
46 *107:6 *1434:B 5.5792e-05
47 *119:10 *168:18 4.24364e-05
48 *130:67 *1559:A1 1.59094e-05
49 *137:10 *168:36 2.33512e-05
50 *137:16 *168:36 0.000769957
51 *137:131 *168:12 1.22803e-05
52 *138:14 *168:8 5.60728e-05
53 *138:33 *168:8 0.000655138
54 *155:20 *168:18 4.93791e-05
55 *158:33 *1559:A1 6.47194e-05
56 *158:59 *1433:A2 4.84155e-05
57 *158:59 *168:44 0.00401199
58 *167:24 *168:18 0.000704046
*RES
1 *1424:Y *168:4 23 
2 *168:4 *168:8 42.7779 
3 *168:8 *168:12 48.8175 
4 *168:12 *168:18 46.7259 
5 *168:18 *168:30 37.7886 
6 *168:30 *168:36 29.435 
7 *168:36 *168:40 17.61 
8 *168:40 *168:44 47.6843 
9 *168:44 *1433:A2 25.5271 
10 *168:36 *1434:B 38.6214 
11 *168:18 *1559:A1 39.1186 
*END

*D_NET *169 0.0346515
*CONN
*I *1430:A I *D sky130_fd_sc_hd__nor3_2
*I *1431:A1 I *D sky130_fd_sc_hd__o21ai_2
*I *1425:X O *D sky130_fd_sc_hd__and2b_2
*CAP
1 *1430:A 0
2 *1431:A1 0
3 *1425:X 6.07613e-05
4 *169:49 0.000903148
5 *169:45 0.00696498
6 *169:26 0.00142446
7 *169:20 0.00416847
8 *169:10 0.0088666
9 *169:10 *211:56 1.28035e-05
10 *169:20 *173:41 3.01561e-05
11 *169:20 *178:18 0.000229954
12 *169:20 *209:102 0.000544508
13 *169:20 *211:56 0.000164281
14 *169:20 *211:70 6.99679e-05
15 *169:26 *1431:A2 2.13869e-05
16 *169:26 *1431:B1 0.00152211
17 *169:26 *175:10 2.31687e-05
18 *169:26 *215:14 1.61361e-05
19 *169:45 *180:19 0.000200664
20 *169:45 *190:28 0.000224777
21 *169:45 *195:16 0.000105077
22 *169:45 *200:53 0
23 *169:45 *222:39 0.000155936
24 *169:45 *229:91 0.000337732
25 *169:49 *170:22 0.000401049
26 *169:49 *213:8 0.000159037
27 *44:20 *169:20 4.99753e-06
28 *52:34 *169:45 1.03597e-05
29 *66:32 *169:20 8.78319e-07
30 *67:24 *169:45 0
31 *82:20 *169:45 2.32089e-05
32 *93:22 *169:45 0.000208342
33 *95:30 *169:45 0.000171769
34 *103:10 *169:49 0.000977281
35 *112:10 *169:45 0.000506288
36 *130:43 *169:20 0.00131075
37 *130:154 *169:20 0
38 *130:165 *169:20 0.000191157
39 *140:35 *169:10 5.3304e-05
40 *141:10 *169:20 0.000323509
41 *141:16 *169:20 0.000678543
42 *153:10 *169:10 2.05503e-05
43 *153:10 *169:20 0.00016102
44 *155:20 *169:20 0.00051301
45 *155:20 *169:45 0.000137814
46 *155:28 *169:45 4.01402e-05
47 *155:55 *169:45 0.00104856
48 *156:28 *169:45 0.00022211
49 *165:16 *169:20 2.65812e-05
50 *167:24 *169:20 0.000534357
51 *167:24 *169:45 0.000554154
52 *168:18 *169:20 0.000325657
*RES
1 *1425:X *169:10 38.9425 
2 *169:10 *169:20 47.0631 
3 *169:20 *169:26 35.0514 
4 *169:26 *1431:A1 23 
5 *169:10 *169:45 45.8955 
6 *169:45 *169:49 37.1539 
7 *169:49 *1430:A 23 
*END

*D_NET *170 0.0296161
*CONN
*I *1431:A2 I *D sky130_fd_sc_hd__o21ai_2
*I *1430:B I *D sky130_fd_sc_hd__nor3_2
*I *1426:X O *D sky130_fd_sc_hd__and3_2
*CAP
1 *1431:A2 7.55078e-05
2 *1430:B 0
3 *1426:X 9.02409e-05
4 *170:31 0.00223099
5 *170:22 0.00158085
6 *170:20 0.00158085
7 *170:18 0.00317108
8 *170:16 0.00325913
9 *170:12 0.00233377
10 *1431:A2 *175:10 5.56356e-05
11 *1431:A2 *215:14 0.000188934
12 *170:12 *183:113 4.84129e-06
13 *170:16 *187:26 0.000152625
14 *170:16 *228:64 0
15 *170:18 *172:32 2.81066e-05
16 *170:18 *188:79 0.000157785
17 *170:18 *200:22 0.00204396
18 *170:18 *211:6 0.00221356
19 *170:22 *201:31 0.00188507
20 *170:22 *213:8 0.000345195
21 *170:31 *1445:B1 0
22 *170:31 *1475:A 0
23 *170:31 *175:10 0.000374002
24 *170:31 *183:113 0.000122397
25 *170:31 *187:18 4.4148e-05
26 *170:31 *187:26 0.00298448
27 *170:31 *202:48 0
28 *170:31 *228:64 0
29 *170:31 *228:74 8.16253e-05
30 *35:55 *170:18 2.64616e-05
31 *40:35 *170:31 0.00025307
32 *49:63 *170:18 0.000435797
33 *52:10 *170:31 0
34 *91:16 *170:22 0.00116572
35 *103:10 *170:22 0
36 *104:22 *170:22 0.000223936
37 *114:20 *170:31 0.000132921
38 *115:18 *170:31 0.000130283
39 *120:10 *170:22 0
40 *131:44 *170:18 0.000127754
41 *137:90 *170:31 0
42 *142:92 *170:31 0.000373851
43 *146:12 *170:18 0.000558677
44 *146:39 *170:18 0.000760397
45 *169:26 *1431:A2 2.13869e-05
46 *169:49 *170:22 0.000401049
*RES
1 *1426:X *170:12 39.5639 
2 *170:12 *170:16 17.0818 
3 *170:16 *170:18 63.9864 
4 *170:18 *170:20 15 
5 *170:20 *170:22 42.7543 
6 *170:22 *1430:B 38 
7 *170:12 *170:31 54.1989 
8 *170:31 *1431:A2 40.5479 
*END

*D_NET *171 0.010901
*CONN
*I *1429:A I *D sky130_fd_sc_hd__xnor2_4
*I *1427:X O *D sky130_fd_sc_hd__and3_2
*CAP
1 *1429:A 0
2 *1427:X 0.00112314
3 *171:20 0.000983162
4 *171:16 0.00169007
5 *171:10 0.00183005
6 *171:10 *197:33 0.000588652
7 *171:16 *172:18 0.00071849
8 *171:16 *199:27 0
9 *171:20 *174:47 0.00011937
10 *171:20 *199:27 0.000206443
11 *34:29 *171:20 2.3529e-05
12 *63:10 *171:20 0.000193388
13 *107:10 *171:20 0.000573346
14 *137:55 *171:16 0.000237263
15 *137:112 *171:16 3.40021e-05
16 *140:16 *171:20 0.000439382
17 *140:35 *171:16 0.000669558
18 *140:35 *171:20 0.000166106
19 *141:66 *171:10 0.00089789
20 *148:46 *171:20 0.000228923
21 *165:8 *171:10 0.000178227
*RES
1 *1427:X *171:10 40.9386 
2 *171:10 *171:16 32.8454 
3 *171:16 *171:20 39.6189 
4 *171:20 *1429:A 23 
*END

*D_NET *172 0.0236406
*CONN
*I *1492:A2 I *D sky130_fd_sc_hd__a21oi_1
*I *1429:B I *D sky130_fd_sc_hd__xnor2_4
*I *1428:Y O *D sky130_fd_sc_hd__nand2_2
*CAP
1 *1492:A2 0
2 *1429:B 0
3 *1428:Y 5.43738e-05
4 *172:45 0.00125689
5 *172:32 0.00101653
6 *172:24 0.00117538
7 *172:18 0.00146389
8 *172:16 0.00300723
9 *172:12 0.00177249
10 *172:6 0.00138158
11 *172:6 *1450:A2 2.64616e-05
12 *172:12 *230:58 4.34173e-05
13 *172:16 *203:35 0.000163953
14 *172:18 *174:53 0.000248546
15 *172:18 *199:27 1.11462e-05
16 *172:32 *175:26 0.00233767
17 *172:32 *188:79 9.5877e-05
18 *172:45 *1450:A2 0.000153733
19 *172:45 *192:55 0.001216
20 *172:45 *222:68 3.76157e-05
21 *172:45 *224:41 1.08287e-05
22 *40:29 *172:24 7.74423e-05
23 *106:24 *172:32 0.000342844
24 *134:76 *172:16 9.77405e-05
25 *137:112 *172:18 0.000472393
26 *137:131 *172:18 0.000817967
27 *145:24 *172:32 0.00233992
28 *148:148 *172:18 0.000110383
29 *149:63 *172:12 8.94487e-05
30 *149:67 *172:12 2.35393e-05
31 *155:20 *172:18 0.000115647
32 *168:12 *172:18 0.0029331
33 *170:18 *172:32 2.81066e-05
34 *171:16 *172:18 0.00071849
*RES
1 *1428:Y *172:6 23.6214 
2 *172:6 *172:12 31.9057 
3 *172:12 *172:16 36.1079 
4 *172:16 *172:18 40.9936 
5 *172:18 *172:24 32.5271 
6 *172:24 *172:32 48.785 
7 *172:32 *1429:B 23 
8 *172:6 *172:45 49.5543 
9 *172:45 *1492:A2 23 
*END

*D_NET *173 0.0311797
*CONN
*I *1431:B1 I *D sky130_fd_sc_hd__o21ai_2
*I *1430:C I *D sky130_fd_sc_hd__nor3_2
*I *1429:Y O *D sky130_fd_sc_hd__xnor2_4
*CAP
1 *1431:B1 0.000588851
2 *1430:C 0
3 *1429:Y 0
4 *173:41 0.00179354
5 *173:33 0.00407511
6 *173:12 0.000324625
7 *173:8 0.00236696
8 *173:6 0.00491276
9 *1431:B1 *175:10 5.3304e-05
10 *1431:B1 *181:36 0.00017761
11 *1431:B1 *194:16 4.5051e-05
12 *1431:B1 *215:14 0.000413998
13 *173:8 *174:22 0
14 *173:8 *179:42 0
15 *173:8 *211:14 0
16 *173:12 *174:10 0.000425201
17 *173:12 *219:30 0.00139331
18 *173:41 *178:18 1.89075e-05
19 *173:41 *194:49 0.000413422
20 *173:41 *209:102 0.000572322
21 *173:41 *209:114 0.000203675
22 *32:26 *173:8 0.000974991
23 *32:26 *173:33 2.33476e-05
24 *52:24 *173:33 0.000347598
25 *60:16 *173:41 0.000456056
26 *66:36 *173:8 0.00178944
27 *66:36 *173:33 1.38978e-05
28 *67:24 *173:8 0
29 *67:24 *173:33 0.00166601
30 *68:8 *173:8 0
31 *106:24 *173:33 0.00167335
32 *120:6 *173:12 0.00224483
33 *130:43 *173:41 0.000347063
34 *130:131 *173:33 4.31595e-05
35 *130:154 *173:33 0.000114046
36 *135:51 *173:41 0.00120596
37 *135:55 *173:41 0
38 *165:16 *173:41 0.000949034
39 *169:20 *173:41 3.01561e-05
40 *169:26 *1431:B1 0.00152211
*RES
1 *1429:Y *173:6 38 
2 *173:6 *173:8 42.05 
3 *173:8 *173:12 38.9664 
4 *173:12 *1430:C 23 
5 *173:6 *173:33 40.9301 
6 *173:33 *173:41 49.5411 
7 *173:41 *1431:B1 40.2964 
*END

*D_NET *174 0.0244069
*CONN
*I *1432:A I *D sky130_fd_sc_hd__or2b_2
*I *1496:B1 I *D sky130_fd_sc_hd__a21o_1
*I *1430:Y O *D sky130_fd_sc_hd__nor3_2
*CAP
1 *1432:A 0
2 *1496:B1 0
3 *1430:Y 2.18824e-05
4 *174:53 0.00075093
5 *174:47 0.00330335
6 *174:24 0.00340081
7 *174:22 0.00199921
8 *174:10 0.00153695
9 *174:6 0.000408008
10 *174:10 *213:12 0.00245432
11 *174:10 *219:30 0.00174699
12 *174:22 *199:10 0.000251823
13 *174:22 *229:91 0
14 *174:24 *183:168 0.000269958
15 *174:24 *199:10 0.000329659
16 *174:24 *199:27 0
17 *174:24 *227:64 2.83449e-05
18 *174:47 *175:26 0.000342844
19 *174:47 *198:26 0.000820574
20 *174:47 *199:27 0.000235375
21 *174:53 *175:24 5.06994e-05
22 *174:53 *196:110 0.000345553
23 *68:8 *174:22 2.26406e-05
24 *68:8 *174:24 0.000738702
25 *68:8 *174:47 7.45678e-05
26 *104:22 *174:22 0
27 *106:24 *174:24 0.000104065
28 *106:24 *174:47 0.00168227
29 *107:10 *174:47 0.000113006
30 *137:112 *174:53 0.000611877
31 *145:22 *174:24 2.62577e-05
32 *145:24 *174:24 0.000367095
33 *145:24 *174:47 0.000173717
34 *148:46 *174:47 0.000235375
35 *148:148 *174:53 9.70232e-05
36 *150:16 *174:47 0.000217968
37 *155:20 *174:47 0.000851932
38 *171:20 *174:47 0.00011937
39 *172:18 *174:53 0.000248546
40 *173:8 *174:22 0
41 *173:12 *174:10 0.000425201
*RES
1 *1430:Y *174:6 23.4971 
2 *174:6 *174:10 41.825 
3 *174:10 *174:22 32.7611 
4 *174:22 *174:24 21.8018 
5 *174:24 *1496:B1 38 
6 *174:24 *174:47 43.2446 
7 *174:47 *174:53 29.2825 
8 *174:53 *1432:A 23 
*END

*D_NET *175 0.0183763
*CONN
*I *1432:B_N I *D sky130_fd_sc_hd__or2b_2
*I *1496:A2 I *D sky130_fd_sc_hd__a21o_1
*I *1431:Y O *D sky130_fd_sc_hd__o21ai_2
*CAP
1 *1432:B_N 0
2 *1496:A2 0
3 *1431:Y 0.000171308
4 *175:26 0.0018065
5 *175:24 0.0021409
6 *175:20 0.00153433
7 *175:10 0.00137124
8 *175:10 *215:14 2.02872e-05
9 *175:20 *196:110 0.000312772
10 *175:20 *224:8 0.000306156
11 *175:24 *196:110 0.000149337
12 *175:24 *199:50 5.12254e-05
13 *175:24 *224:8 0.000721192
14 *175:26 *199:27 0.00314016
15 *175:26 *199:31 0.000251152
16 *175:26 *199:42 9.80568e-05
17 *1431:A2 *175:10 5.56356e-05
18 *1431:B1 *175:10 5.3304e-05
19 *35:71 *175:20 0.000177289
20 *43:22 *175:20 0.00176826
21 *43:30 *175:20 0.000123029
22 *98:10 *175:26 0
23 *115:18 *175:10 0.000376242
24 *145:24 *175:26 0.000162126
25 *148:10 *175:26 0.000447013
26 *150:10 *175:26 1.03654e-05
27 *169:26 *175:10 2.31687e-05
28 *170:31 *175:10 0.000374002
29 *172:32 *175:26 0.00233767
30 *174:47 *175:26 0.000342844
31 *174:53 *175:24 5.06994e-05
*RES
1 *1431:Y *175:10 44.1729 
2 *175:10 *175:20 42.9643 
3 *175:20 *175:24 23.2443 
4 *175:24 *175:26 53.3186 
5 *175:26 *1496:A2 38 
6 *175:20 *1432:B_N 23 
*END

*D_NET *176 0.0260341
*CONN
*I *1434:C I *D sky130_fd_sc_hd__and3_1
*I *1433:B1 I *D sky130_fd_sc_hd__a21oi_2
*I *1432:X O *D sky130_fd_sc_hd__or2b_2
*CAP
1 *1434:C 0
2 *1433:B1 0
3 *1432:X 0.000353815
4 *176:55 0.000331163
5 *176:36 0.0015185
6 *176:28 0.0028841
7 *176:24 0.00232088
8 *176:10 0.00275142
9 *176:8 0.0018188
10 *176:8 *224:8 0.000434136
11 *176:10 *183:28 0.000438964
12 *176:10 *183:53 0.000519443
13 *176:10 *188:75 0.000845564
14 *176:10 *197:37 0.000179327
15 *176:10 *228:84 0.0015795
16 *176:24 *197:37 0.000119531
17 *176:24 *198:26 0.000371391
18 *176:24 *211:24 6.73288e-05
19 *176:24 *212:22 0.00163823
20 *176:28 *186:32 0
21 *176:28 *196:24 0.000165744
22 *176:28 *212:12 4.73652e-05
23 *176:28 *226:44 3.73691e-05
24 *176:36 *177:10 5.82853e-05
25 *176:36 *181:139 0.000316273
26 *176:55 *181:139 0.000491264
27 *176:55 *220:34 2.07921e-05
28 *81:8 *176:36 0.000168852
29 *88:24 *176:24 0.000125405
30 *88:24 *176:28 6.69637e-06
31 *97:12 *176:10 0.00110303
32 *104:26 *176:28 0.00028355
33 *104:30 *176:36 0.000100486
34 *104:30 *176:55 0.00048264
35 *106:24 *176:24 0
36 *114:10 *176:10 0.000491538
37 *119:10 *176:28 0.000243503
38 *137:26 *176:24 0.000270069
39 *142:123 *176:24 0.000115051
40 *149:87 *176:10 0.000671945
41 *149:91 *176:24 0.000235503
42 *158:45 *176:24 0.000137075
43 *158:45 *176:28 0.000214426
44 *158:55 *176:55 0
45 *168:36 *176:55 5.87548e-05
46 *168:40 *176:55 4.96024e-05
47 *168:44 *176:36 0.00196674
*RES
1 *1432:X *176:8 42.9093 
2 *176:8 *176:10 45.3954 
3 *176:10 *176:24 36.4875 
4 *176:24 *176:28 36.0975 
5 *176:28 *176:36 41.3043 
6 *176:36 *1433:B1 23 
7 *176:28 *176:55 39.3421 
8 *176:55 *1434:C 23 
*END

*D_NET *177 0.0227758
*CONN
*I *1435:A I *D sky130_fd_sc_hd__nor2_1
*I *1433:Y O *D sky130_fd_sc_hd__a21oi_2
*CAP
1 *1435:A 0
2 *1433:Y 0.000422975
3 *177:28 0.00115725
4 *177:24 0.00648556
5 *177:10 0.00575128
6 *177:24 *204:46 0.000136201
7 *177:28 *178:12 0.000102433
8 *177:28 *178:18 0
9 *177:28 *185:31 0.000531259
10 *177:28 *194:49 0.00011385
11 *177:28 *204:38 6.02277e-06
12 *177:28 *204:46 9.95795e-05
13 *177:28 *205:27 0.00020862
14 *1433:A2 *177:10 1.35999e-05
15 *1543:A *177:10 2.25825e-05
16 *48:16 *177:24 2.47094e-05
17 *48:28 *177:24 8.99458e-05
18 *49:65 *177:24 0.000404729
19 *49:65 *177:28 4.51887e-05
20 *60:26 *177:28 5.76445e-05
21 *74:26 *177:24 0
22 *78:22 *177:24 0.000270747
23 *88:24 *177:24 0.000657334
24 *92:16 *177:24 0
25 *99:10 *177:28 5.26426e-05
26 *104:22 *177:24 0.0032298
27 *109:20 *177:10 0.000353564
28 *111:12 *177:10 1.27489e-05
29 *120:10 *177:10 0
30 *135:32 *177:28 0.000548311
31 *135:51 *177:28 0.0010503
32 *141:26 *177:24 4.8098e-05
33 *147:10 *177:28 0.000161121
34 *147:23 *177:28 0.000365855
35 *149:104 *177:28 8.62783e-05
36 *162:29 *177:10 0.000196111
37 *168:44 *177:10 1.12268e-05
38 *176:36 *177:10 5.82853e-05
*RES
1 *1433:Y *177:10 46.8139 
2 *177:10 *177:24 47.4112 
3 *177:24 *177:28 48.4225 
4 *177:28 *1435:A 23 
*END

*D_NET *178 0.013754
*CONN
*I *1435:B I *D sky130_fd_sc_hd__nor2_1
*I *1434:X O *D sky130_fd_sc_hd__and3_1
*CAP
1 *1435:B 0
2 *1434:X 0.000361292
3 *178:18 0.00102752
4 *178:12 0.00277919
5 *178:8 0.00211297
6 *178:8 *220:32 9.03364e-06
7 *178:8 *220:34 1.59071e-05
8 *178:18 *179:8 9.41704e-05
9 *178:18 *193:66 0.00016174
10 *178:18 *194:49 0.000822996
11 *1538:A2 *178:8 3.72483e-05
12 *35:18 *178:12 0.000406588
13 *35:33 *178:12 0.000217079
14 *49:65 *178:12 0
15 *64:16 *178:12 1.22906e-05
16 *88:24 *178:12 0.000185018
17 *99:10 *178:12 0.00162479
18 *100:12 *178:12 3.43537e-05
19 *105:12 *178:12 1.67884e-05
20 *106:24 *178:12 4.89546e-05
21 *107:6 *178:8 0.000102389
22 *118:10 *178:12 0.00059129
23 *118:10 *178:18 0.000537371
24 *134:134 *178:8 2.10502e-05
25 *134:134 *178:12 0.000142794
26 *135:16 *178:12 0.000268231
27 *141:16 *178:18 0.00057151
28 *146:8 *178:12 0.000797892
29 *165:16 *178:18 0.000402256
30 *169:20 *178:18 0.000229954
31 *173:41 *178:18 1.89075e-05
32 *177:28 *178:12 0.000102433
33 *177:28 *178:18 0
*RES
1 *1434:X *178:8 42.9093 
2 *178:8 *178:12 44.8361 
3 *178:12 *178:18 43.3061 
4 *178:18 *1435:B 23 
*END

*D_NET *179 0.0191388
*CONN
*I *1481:A2 I *D sky130_fd_sc_hd__a211o_1
*I *1435:Y O *D sky130_fd_sc_hd__nor2_1
*CAP
1 *1481:A2 0.000113969
2 *1435:Y 0
3 *179:42 0.00211068
4 *179:40 0.00372895
5 *179:20 0.00228222
6 *179:8 0.00208243
7 *179:4 0.00153245
8 *1481:A2 *217:6 7.90102e-05
9 *179:8 *185:16 0.000663349
10 *179:8 *185:25 1.73995e-05
11 *179:20 *1449:C 0.000136743
12 *179:20 *210:28 0
13 *179:40 *209:28 0
14 *179:40 *222:31 0
15 *179:42 *181:123 0
16 *179:42 *190:28 0.000201777
17 *179:42 *195:44 2.95428e-06
18 *179:42 *196:8 2.81858e-05
19 *179:42 *210:54 0
20 *179:42 *222:31 0
21 *1425:B *179:8 0.00026353
22 *42:8 *179:8 0.0013358
23 *55:31 *179:20 0.000427713
24 *55:31 *179:40 0.00120652
25 *56:52 *179:20 3.95587e-05
26 *84:26 *179:20 0.000207408
27 *95:30 *179:42 0.00195026
28 *97:18 *179:40 0
29 *112:10 *179:40 7.01678e-05
30 *124:12 *179:42 0
31 *133:54 *179:42 4.80733e-05
32 *140:35 *179:8 0.000390945
33 *156:28 *179:40 2.47015e-05
34 *156:28 *179:42 1.22093e-05
35 *156:41 *179:20 6.70361e-05
36 *164:48 *179:40 2.05503e-05
37 *173:8 *179:42 0
38 *178:18 *179:8 9.41704e-05
*RES
1 *1435:Y *179:4 23 
2 *179:4 *179:8 47.5421 
3 *179:8 *179:20 41.4654 
4 *179:20 *179:40 37.2698 
5 *179:40 *179:42 39.4089 
6 *179:42 *1481:A2 40.5271 
*END

*D_NET *180 0.0146728
*CONN
*I *1479:C I *D sky130_fd_sc_hd__and3_2
*I *1518:C1 I *D sky130_fd_sc_hd__o211ai_2
*I *1437:B I *D sky130_fd_sc_hd__nor2_4
*I *1436:Y O *D sky130_fd_sc_hd__nand2_2
*CAP
1 *1479:C 8.33173e-05
2 *1518:C1 2.95011e-05
3 *1437:B 0.000128019
4 *1436:Y 2.77218e-05
5 *180:27 0.00100398
6 *180:23 0.00144677
7 *180:19 0.00162586
8 *180:8 0.00139262
9 *1479:C *1479:A 8.30586e-05
10 *180:19 *1592:A 0.000163352
11 *180:19 *210:28 0.000106075
12 *180:19 *210:32 0.000114259
13 *180:19 *223:10 0.00122522
14 *180:23 *1479:A 0.000137533
15 *180:27 *200:57 0.0016019
16 *32:52 *180:27 1.29944e-05
17 *32:65 *180:27 0.000457204
18 *38:14 *180:19 7.28792e-05
19 *41:38 *180:19 0.000483376
20 *55:31 *180:19 0
21 *67:24 *180:27 0.00011584
22 *78:10 *180:27 0
23 *95:18 *1437:B 0.000259337
24 *95:18 *180:19 0.000308267
25 *97:16 *180:8 5.3304e-05
26 *112:10 *1437:B 0.000259337
27 *112:10 *180:19 0.00291188
28 *116:30 *180:27 0.000135616
29 *129:46 *180:27 0
30 *134:33 *180:23 0.000151478
31 *135:36 *180:8 2.64616e-05
32 *137:165 *1518:C1 5.50106e-05
33 *169:45 *180:19 0.000200664
*RES
1 *1436:Y *180:8 38.6214 
2 *180:8 *1437:B 41.6664 
3 *180:8 *180:19 39.9371 
4 *180:19 *180:23 19.9093 
5 *180:23 *180:27 39.4429 
6 *180:27 *1518:C1 38.6214 
7 *180:23 *1479:C 24.0979 
*END

*D_NET *181 0.0507555
*CONN
*I *1447:A3 I *D sky130_fd_sc_hd__a311o_1
*I *1555:A3 I *D sky130_fd_sc_hd__a31o_1
*I *1526:A3 I *D sky130_fd_sc_hd__a31o_1
*I *1538:A3 I *D sky130_fd_sc_hd__a311o_1
*I *1513:A3 I *D sky130_fd_sc_hd__a31oi_2
*I *1548:A3 I *D sky130_fd_sc_hd__a311o_1
*I *1517:B I *D sky130_fd_sc_hd__or2_1
*I *1437:Y O *D sky130_fd_sc_hd__nor2_4
*CAP
1 *1447:A3 0
2 *1555:A3 0
3 *1526:A3 0
4 *1538:A3 0
5 *1513:A3 4.85813e-05
6 *1548:A3 0
7 *1517:B 0.000287011
8 *1437:Y 0.000187195
9 *181:139 0.000932136
10 *181:131 0.00197269
11 *181:123 0.00201738
12 *181:115 0.00220026
13 *181:113 0.00172035
14 *181:107 0.00165158
15 *181:87 0.00181618
16 *181:70 0.00185976
17 *181:59 0.000519345
18 *181:40 0.00102468
19 *181:36 0.00109585
20 *181:28 0.000557694
21 *181:18 0.000718863
22 *181:16 0.000744486
23 *181:12 0.00247645
24 *181:8 0.00306882
25 *1517:B *1448:A 9.84794e-05
26 *1517:B *1448:B 0.000153145
27 *1517:B *192:10 6.17437e-06
28 *1517:B *225:107 5.2459e-05
29 *181:16 *1462:B 2.17571e-05
30 *181:16 *183:18 0.000543437
31 *181:16 *192:28 0.00165361
32 *181:16 *197:10 7.26287e-05
33 *181:16 *210:91 0.000217869
34 *181:28 *192:28 0.000235024
35 *181:28 *194:24 0.000237255
36 *181:28 *202:44 9.41704e-05
37 *181:28 *230:54 2.81066e-05
38 *181:36 *1472:A2 7.34717e-05
39 *181:36 *194:16 0.000135037
40 *181:36 *194:18 0.00059479
41 *181:36 *194:24 3.70187e-05
42 *181:36 *204:83 3.92407e-05
43 *181:36 *215:14 2.02872e-05
44 *181:36 *224:23 0.000125899
45 *181:40 *192:10 0.000161326
46 *181:40 *192:16 0.000846938
47 *181:40 *192:20 0.000417585
48 *181:40 *224:31 0.000387028
49 *181:40 *230:58 0.000591608
50 *181:59 *196:76 0.000113153
51 *181:59 *202:44 0.00109949
52 *181:59 *222:68 1.47563e-05
53 *181:70 *1513:A1 9.41704e-05
54 *181:87 *204:10 0.000145296
55 *181:87 *229:20 0.000135375
56 *181:107 *1555:A1 4.67488e-05
57 *181:107 *1557:A1 0.000421094
58 *181:107 *200:14 3.811e-06
59 *181:107 *200:18 0.000334549
60 *181:107 *204:10 0.000863879
61 *181:107 *206:31 0
62 *181:107 *226:76 3.67392e-05
63 *181:107 *229:20 0.000306294
64 *181:113 *1557:A1 1.13812e-05
65 *181:113 *226:10 0.000348071
66 *181:113 *226:76 0.000427354
67 *181:113 *229:14 4.10102e-05
68 *181:115 *201:43 0.00093717
69 *181:123 *210:54 0.000598344
70 *181:131 *199:16 0.00112193
71 *181:131 *220:34 5.57162e-05
72 *1414:A *181:12 0.000136738
73 *1414:B *181:12 0.000457511
74 *1431:B1 *181:36 0.00017761
75 *1481:C1 *181:123 8.77305e-05
76 *31:36 *181:87 0
77 *36:16 *181:28 9.58714e-05
78 *39:20 *181:87 0
79 *48:45 *181:139 0.000159375
80 *55:20 *181:107 0
81 *56:56 *1513:A3 3.66555e-05
82 *56:56 *181:70 4.94105e-05
83 *56:71 *181:70 0.000205249
84 *57:35 *181:131 8.57485e-05
85 *63:16 *181:115 2.18506e-05
86 *63:44 *181:131 8.36198e-05
87 *69:14 *181:8 0.000441517
88 *69:14 *181:70 0.000238185
89 *84:30 *181:70 0.00174032
90 *85:10 *181:70 0.00030373
91 *101:8 *181:123 0
92 *104:30 *181:139 0.000168873
93 *107:6 *181:131 0.000182213
94 *109:20 *181:113 0
95 *114:14 *181:28 9.64943e-05
96 *114:14 *181:59 0.000915177
97 *116:10 *181:59 8.50457e-05
98 *127:6 *181:12 0.00140367
99 *132:10 *181:87 0
100 *133:44 *181:115 0.000358906
101 *137:90 *181:59 1.12863e-05
102 *148:30 *181:87 0.000619169
103 *149:67 *181:36 5.75972e-05
104 *149:145 *181:59 1.35751e-05
105 *156:37 *181:8 0.000443749
106 *156:37 *181:70 0.000228962
107 *157:14 *181:12 0.000554783
108 *158:8 *181:12 1.40958e-05
109 *163:31 *181:70 0.000582938
110 *163:33 *181:70 0.000990364
111 *168:36 *181:139 0
112 *176:36 *181:139 0.000316273
113 *176:55 *181:139 0.000491264
114 *179:42 *181:123 0
*RES
1 *1437:Y *181:8 44.1314 
2 *181:8 *181:12 47.5421 
3 *181:12 *181:16 37.6821 
4 *181:16 *181:18 15 
5 *181:18 *181:28 35.51 
6 *181:28 *181:36 40.6471 
7 *181:36 *181:40 37.33 
8 *181:40 *1517:B 43.8621 
9 *181:18 *181:59 44.935 
10 *181:59 *1548:A3 23 
11 *181:8 *181:70 47.9979 
12 *181:70 *1513:A3 24.0979 
13 *181:70 *181:87 30.1421 
14 *181:87 *181:107 41.9286 
15 *181:107 *181:113 41.4136 
16 *181:113 *181:115 22.5371 
17 *181:115 *181:123 46.0329 
18 *181:123 *181:131 47.0686 
19 *181:131 *181:139 44.3136 
20 *181:139 *1538:A3 23 
21 *181:115 *1526:A3 23 
22 *181:107 *1555:A3 23 
23 *181:87 *1447:A3 38 
*END

*D_NET *182 0.0196206
*CONN
*I *1439:A I *D sky130_fd_sc_hd__clkbuf_4
*I *1438:X O *D sky130_fd_sc_hd__or2_1
*CAP
1 *1439:A 0
2 *1438:X 0
3 *182:18 0.00124441
4 *182:12 0.00269715
5 *182:8 0.00145273
6 *182:6 0.00287655
7 *182:4 0.00287655
8 *182:18 *183:6 5.3304e-05
9 *182:18 *216:10 0.000380243
10 out[1] *182:12 3.61892e-05
11 out[3] *182:18 0.000130212
12 out[4] *182:18 2.44846e-05
13 *35:86 *182:6 0.00164847
14 *43:16 *182:18 6.17437e-06
15 *50:29 *182:12 0
16 *50:29 *182:18 0.000834635
17 *61:28 *182:12 0.00167252
18 *65:10 *182:6 5.50049e-05
19 *83:10 *182:12 0.00237261
20 *83:10 *182:18 0.000181462
21 *86:10 *182:18 0.000433367
22 *135:59 *182:6 0.000612297
23 *138:37 *182:6 3.22118e-05
*RES
1 *1438:X *182:4 23 
2 *182:4 *182:6 41.1179 
3 *182:6 *182:8 15 
4 *182:8 *182:12 43.6761 
5 *182:12 *182:18 47.1589 
6 *182:18 *1439:A 23 
*END

*D_NET *183 0.0464027
*CONN
*I *1440:B I *D sky130_fd_sc_hd__nor2_1
*I *1557:A2 I *D sky130_fd_sc_hd__o22a_1
*I *1514:A2 I *D sky130_fd_sc_hd__o221a_1
*I *1527:B I *D sky130_fd_sc_hd__nor2_1
*I *1537:B I *D sky130_fd_sc_hd__nor2_1
*I *1547:B I *D sky130_fd_sc_hd__nor2_1
*I *1503:A2 I *D sky130_fd_sc_hd__o211ai_2
*I *1520:A2 I *D sky130_fd_sc_hd__o21ai_2
*I *1439:X O *D sky130_fd_sc_hd__clkbuf_4
*CAP
1 *1440:B 0
2 *1557:A2 0
3 *1514:A2 0.000583423
4 *1527:B 0
5 *1537:B 0
6 *1547:B 0
7 *1503:A2 0
8 *1520:A2 0
9 *1439:X 0.000137737
10 *183:180 0.000724876
11 *183:176 0.00148256
12 *183:170 0.000757688
13 *183:168 0.00123063
14 *183:162 0.00214193
15 *183:131 0.00209977
16 *183:113 0.00105196
17 *183:105 0.00072482
18 *183:78 0.000129255
19 *183:70 0.000737932
20 *183:53 0.00121603
21 *183:34 0.00163013
22 *183:30 0.00163013
23 *183:28 0.00130896
24 *183:22 0.00129473
25 *183:18 0.00159231
26 *183:14 0.00158039
27 *183:6 0.000996853
28 *1514:A2 *188:16 0
29 *1514:A2 *229:91 2.11157e-05
30 *183:18 *192:28 0.000229069
31 *183:18 *196:66 0.000529373
32 *183:18 *196:68 0
33 *183:18 *205:53 8.55814e-05
34 *183:22 *205:42 0.00043563
35 *183:28 *197:37 0.00039255
36 *183:34 *197:33 2.64616e-05
37 *183:53 *196:114 0.000149138
38 *183:53 *215:14 9.78729e-06
39 *183:53 *228:84 0.00044068
40 *183:70 *215:14 0.000224315
41 *183:105 *187:26 9.58263e-05
42 *183:105 *227:104 9.17365e-05
43 *183:113 *228:64 6.12199e-05
44 *183:131 *188:16 0
45 *183:131 *188:61 0.000352233
46 *183:162 *228:51 0.000282367
47 *183:168 *228:43 0.000246247
48 *183:168 *228:51 0.000951036
49 *183:176 *206:62 0.000599177
50 *183:176 *227:39 0.000257803
51 *183:180 *1557:B2 0.000258511
52 *1412:C *183:14 1.95448e-05
53 *1502:A2 *183:14 0.000414163
54 *1503:C1 *183:70 5.56356e-05
55 *1527:A *183:22 5.55743e-06
56 *1547:A *183:78 5.5792e-05
57 *35:41 *183:168 0.000135037
58 *37:23 *183:70 0
59 *42:10 *183:28 2.17571e-05
60 *42:10 *183:53 0.000282947
61 *49:18 *183:70 6.03649e-05
62 *53:30 *183:176 0.000434766
63 *58:16 *183:131 0
64 *61:18 *183:78 5.5792e-05
65 *69:18 *183:34 0.000994329
66 *71:10 *183:176 7.74686e-05
67 *77:10 *183:176 0.00115807
68 *77:24 *183:176 0.000208475
69 *86:10 *1514:A2 0.000194333
70 *86:10 *183:131 0.000156014
71 *98:10 *183:78 0.000137744
72 *116:22 *183:70 0.000940225
73 *123:12 *183:176 1.01436e-05
74 *124:6 *183:180 0.000223326
75 *127:14 *183:18 0.000379807
76 *128:27 *183:78 2.37243e-05
77 *129:10 *183:78 0.000160125
78 *129:36 *183:78 2.45092e-05
79 *130:89 *183:176 0.000397001
80 *131:60 *183:22 0.000263502
81 *131:62 *183:22 4.05745e-05
82 *131:62 *183:28 0.00100199
83 *131:119 *183:34 0.000131863
84 *133:26 *183:180 0.000270241
85 *134:27 *183:70 0.000937737
86 *134:93 *183:105 0.00010641
87 *136:96 *183:18 0.000241606
88 *141:66 *183:34 0.000361101
89 *142:106 *183:105 0.000205702
90 *143:26 *183:18 2.28017e-05
91 *145:22 *183:168 0.000267727
92 *148:148 *183:34 0.000264559
93 *150:10 *183:34 0.00257395
94 *166:6 *183:168 0.00207024
95 *167:10 *183:18 0.000180012
96 *168:30 *183:168 9.17507e-05
97 *170:12 *183:113 4.84129e-06
98 *170:31 *183:113 0.000122397
99 *174:24 *183:168 0.000269958
100 *176:10 *183:28 0.000438964
101 *176:10 *183:53 0.000519443
102 *181:16 *183:18 0.000543437
103 *182:18 *183:6 5.3304e-05
*RES
1 *1439:X *183:6 24.5743 
2 *183:6 *183:14 23.41 
3 *183:14 *183:18 43.3164 
4 *183:18 *183:22 10.6471 
5 *183:22 *183:28 32.2343 
6 *183:28 *183:30 15 
7 *183:30 *183:34 40.1857 
8 *183:34 *1520:A2 23 
9 *183:28 *183:53 30.6807 
10 *183:53 *1503:A2 23 
11 *183:53 *183:70 46.6129 
12 *183:70 *183:78 33.2314 
13 *183:78 *1547:B 23 
14 *183:70 *1537:B 23 
15 *183:22 *1527:B 23 
16 *183:6 *183:105 35.7793 
17 *183:105 *183:113 37.7471 
18 *183:113 *183:131 29.5104 
19 *183:131 *1514:A2 49.8796 
20 *183:131 *183:162 29.4689 
21 *183:162 *183:168 47.3971 
22 *183:168 *183:170 15 
23 *183:170 *183:176 38.4279 
24 *183:176 *183:180 28.9614 
25 *183:180 *1557:A2 23 
26 *183:170 *1440:B 23 
*END

*D_NET *184 0.0111659
*CONN
*I *1447:B1 I *D sky130_fd_sc_hd__a311o_1
*I *1440:Y O *D sky130_fd_sc_hd__nor2_1
*CAP
1 *1447:B1 0.00033124
2 *1440:Y 0.00033786
3 *184:20 0.00102097
4 *184:14 0.00178129
5 *184:10 0.00142943
6 *1447:B1 *1447:A1 5.55743e-06
7 *1447:B1 *1447:A2 0.000733379
8 *1447:B1 *190:34 0.000818136
9 *1447:B1 *205:21 2.19403e-05
10 *184:10 *206:62 0.000356634
11 *184:10 *211:14 4.29197e-05
12 *184:14 *195:30 3.50496e-05
13 *184:14 *222:10 0.000142678
14 *184:14 *222:31 0.000927288
15 *184:14 *228:43 0.000306147
16 *184:20 *1557:B2 0.000410379
17 *184:20 *188:96 0.000843578
18 *184:20 *222:16 8.0612e-06
19 *1556:A1 *184:20 0.000261656
20 *32:26 *184:10 0.000110258
21 *103:10 *184:20 0.000514537
22 *122:16 *184:14 0.000346755
23 *128:8 *184:20 0
24 *130:83 *184:14 9.41704e-05
25 *155:55 *184:10 1.0092e-05
26 *156:28 *184:14 0.000115567
27 *164:23 *184:20 0.000160348
*RES
1 *1440:Y *184:10 43.51 
2 *184:10 *184:14 36.1079 
3 *184:14 *184:20 49.865 
4 *184:20 *1447:B1 33.1707 
*END

*D_NET *185 0.025623
*CONN
*I *1442:B I *D sky130_fd_sc_hd__nor2_4
*I *1502:C1 I *D sky130_fd_sc_hd__a211o_1
*I *1519:A3 I *D sky130_fd_sc_hd__a31o_1
*I *1441:Y O *D sky130_fd_sc_hd__nand2_2
*CAP
1 *1442:B 0
2 *1502:C1 0
3 *1519:A3 0
4 *1441:Y 0
5 *185:46 0.000597807
6 *185:31 0.000874551
7 *185:25 0.00264695
8 *185:16 0.00255492
9 *185:10 0.0047843
10 *185:6 0.00105479
11 *185:10 *209:85 0.000134279
12 *185:31 *204:38 0.00192313
13 *185:31 *205:27 0.00020862
14 *185:31 *209:54 2.02872e-05
15 *185:46 *186:8 5.3304e-05
16 *185:46 *204:38 0.000343753
17 *185:46 *209:114 0.000165177
18 *185:46 *230:54 2.64616e-05
19 *1425:B *185:16 0.00026353
20 *1519:A1 *185:16 4.21281e-05
21 *1519:B1 *185:16 0.000686555
22 *42:8 *185:25 0.00146355
23 *42:10 *185:10 0.00130901
24 *42:42 *185:10 0.00104803
25 *45:17 *185:10 7.67427e-05
26 *60:16 *185:31 0.000104065
27 *75:10 *185:31 9.46717e-05
28 *108:20 *185:31 0.000137651
29 *135:51 *185:31 1.44919e-05
30 *135:51 *185:46 0.000399648
31 *135:55 *185:46 0.000360978
32 *136:73 *185:46 5.95625e-06
33 *137:55 *185:10 0.000419633
34 *137:101 *185:46 8.60837e-05
35 *137:112 *185:10 0.0012059
36 *137:131 *185:10 6.4038e-05
37 *142:28 *185:16 3.7681e-05
38 *142:30 *185:16 0.000526719
39 *147:10 *185:31 0.000161121
40 *147:23 *185:31 0.000375999
41 *149:71 *185:46 8.56503e-06
42 *155:20 *185:10 0.000129942
43 *177:28 *185:31 0.000531259
44 *179:8 *185:16 0.000663349
45 *179:8 *185:25 1.73995e-05
*RES
1 *1441:Y *185:6 38 
2 *185:6 *185:10 47.5421 
3 *185:10 *185:16 39.6057 
4 *185:16 *1519:A3 23 
5 *185:10 *185:25 31.82 
6 *185:25 *185:31 43.2543 
7 *185:31 *1502:C1 23 
8 *185:25 *185:46 29.9143 
9 *185:46 *1442:B 23 
*END

*D_NET *186 0.0455003
*CONN
*I *1512:B1 I *D sky130_fd_sc_hd__o21a_1
*I *1554:B I *D sky130_fd_sc_hd__and2b_1
*I *1523:B1 I *D sky130_fd_sc_hd__o22a_1
*I *1446:B1 I *D sky130_fd_sc_hd__o22a_1
*I *1546:B1 I *D sky130_fd_sc_hd__o22a_1
*I *1536:B1 I *D sky130_fd_sc_hd__o22a_1
*I *1442:Y O *D sky130_fd_sc_hd__nor2_4
*CAP
1 *1512:B1 0
2 *1554:B 0
3 *1523:B1 0
4 *1446:B1 0
5 *1546:B1 2.32701e-05
6 *1536:B1 0
7 *1442:Y 0
8 *186:89 0.000939594
9 *186:71 0.00103132
10 *186:65 0.00105321
11 *186:63 0.00413011
12 *186:61 0.00410823
13 *186:59 0.00141959
14 *186:34 0.000796564
15 *186:32 0.00196037
16 *186:28 0.00133425
17 *186:26 0.000777611
18 *186:24 0.000698126
19 *186:18 0.00235009
20 *186:8 0.00256026
21 *186:4 0.000757852
22 *186:8 *209:106 0.000139974
23 *186:8 *230:54 9.88498e-05
24 *186:18 *188:115 3.20863e-05
25 *186:18 *220:16 0.00129048
26 *186:24 *192:32 0.000318666
27 *186:34 *213:20 0.000677169
28 *186:63 *215:6 1.06206e-05
29 *186:63 *230:6 0.000365188
30 *186:71 *230:6 0.000226187
31 *186:89 *1512:A1 0.0013905
32 *1528:B *186:63 5.56279e-05
33 *1549:A1 *186:63 0.000157865
34 *1549:A2 *186:63 2.62943e-05
35 *1549:B1 *186:63 2.15397e-05
36 *1549:B2 *186:63 0.00024797
37 *1559:B1 *186:26 0.000597366
38 *1559:B1 *186:28 0.000160128
39 *36:16 *186:8 0.000820482
40 *37:10 *186:8 6.17437e-06
41 *44:16 *186:8 0.000168721
42 *61:18 *186:63 4.50994e-05
43 *75:14 *186:18 0
44 *76:16 *186:18 0
45 *79:14 *186:24 0.000316338
46 *84:12 *186:89 5.58003e-05
47 *92:26 *186:71 2.33476e-05
48 *98:8 *186:63 2.38602e-06
49 *104:30 *186:34 0.00288474
50 *114:8 *1546:B1 5.3304e-05
51 *115:8 *186:63 0.00126863
52 *115:12 *186:63 0.00043355
53 *116:30 *186:63 9.32934e-05
54 *119:10 *186:26 0.00145509
55 *119:10 *186:28 0.000216818
56 *119:10 *186:32 0.00104606
57 *130:67 *186:18 0.00012381
58 *131:121 *186:71 0
59 *135:55 *186:59 0.00111142
60 *135:55 *186:89 0.00032966
61 *136:69 *186:59 8.11552e-05
62 *136:73 *186:59 0.000419912
63 *137:10 *186:32 0
64 *137:16 *1546:B1 5.3304e-05
65 *137:16 *186:32 0
66 *137:43 *186:18 0.000561259
67 *137:53 *186:18 0.000213776
68 *141:62 *186:18 0.000133646
69 *149:14 *186:71 0.00148982
70 *149:67 *186:59 0.000288682
71 *149:67 *186:89 0.000152676
72 *149:87 *186:18 9.92568e-05
73 *158:55 *186:32 0.000253869
74 *160:12 *186:71 0.000223805
75 *168:18 *186:18 0
76 *168:18 *186:26 0.000816799
77 *168:30 *186:26 3.91699e-05
78 *168:36 *186:28 0
79 *168:36 *186:32 0
80 *168:44 *186:34 0.000408195
81 *176:28 *186:32 0
82 *185:46 *186:8 5.3304e-05
*RES
1 *1442:Y *186:4 23 
2 *186:4 *186:8 24.1971 
3 *186:8 *186:18 43.2307 
4 *186:18 *186:24 33.48 
5 *186:24 *186:26 20.2171 
6 *186:26 *186:28 3.31429 
7 *186:28 *186:32 37.6821 
8 *186:32 *186:34 31.1129 
9 *186:34 *1536:B1 23 
10 *186:28 *1546:B1 38.6214 
11 *186:26 *1446:B1 38 
12 *186:4 *186:59 30.2871 
13 *186:59 *186:61 15 
14 *186:61 *186:63 56.3636 
15 *186:63 *186:65 0.497143 
16 *186:65 *186:71 41.4107 
17 *186:71 *1523:B1 38 
18 *186:65 *1554:B 23 
19 *186:59 *186:89 36.5429 
20 *186:89 *1512:B1 23 
*END

*D_NET *187 0.0119959
*CONN
*I *1444:A I *D sky130_fd_sc_hd__clkbuf_4
*I *1443:X O *D sky130_fd_sc_hd__or3b_1
*CAP
1 *1444:A 0
2 *1443:X 0.000352156
3 *187:26 0.00119009
4 *187:24 0.00128774
5 *187:18 0.000481228
6 *187:10 0.000735736
7 *187:10 *1462:B 8.78733e-06
8 *187:18 *196:76 0.00051686
9 *187:26 *222:53 0.000863089
10 *187:26 *222:66 0.000405171
11 *187:26 *227:104 0.000607473
12 *187:26 *228:64 0
13 *36:8 *187:10 7.8371e-05
14 *45:80 *187:10 4.96717e-05
15 *45:80 *187:24 4.78593e-05
16 *114:20 *187:18 0.00010718
17 *115:18 *187:24 5.3304e-05
18 *115:18 *187:26 3.39192e-05
19 *116:10 *187:18 4.77425e-05
20 *116:18 *187:18 0.000222041
21 *131:44 *187:26 0.000169674
22 *134:93 *187:26 0.00104643
23 *142:94 *187:26 0.000114127
24 *142:106 *187:26 2.24151e-05
25 *149:145 *187:18 9.64758e-05
26 *150:27 *187:10 0.000181266
27 *170:16 *187:26 0.000152625
28 *170:31 *187:18 4.4148e-05
29 *170:31 *187:26 0.00298448
30 *183:105 *187:26 9.58263e-05
*RES
1 *1443:X *187:10 43.1371 
2 *187:10 *187:18 38.8243 
3 *187:18 *187:24 31.5743 
4 *187:24 *187:26 45.2193 
5 *187:26 *1444:A 38 
*END

*D_NET *188 0.0453519
*CONN
*I *1445:B1 I *D sky130_fd_sc_hd__a21oi_1
*I *1545:B1 I *D sky130_fd_sc_hd__a21oi_1
*I *1535:B1 I *D sky130_fd_sc_hd__a21oi_2
*I *1557:B2 I *D sky130_fd_sc_hd__o22a_1
*I *1514:B2 I *D sky130_fd_sc_hd__o221a_1
*I *1501:A I *D sky130_fd_sc_hd__or3b_2
*I *1522:B1 I *D sky130_fd_sc_hd__a21oi_2
*I *1444:X O *D sky130_fd_sc_hd__clkbuf_4
*CAP
1 *1445:B1 0.000413346
2 *1545:B1 0
3 *1535:B1 0.000384342
4 *1557:B2 0.000457193
5 *1514:B2 6.51717e-05
6 *1501:A 0
7 *1522:B1 0.000307352
8 *1444:X 0.000126572
9 *188:128 0.00120186
10 *188:115 8.24108e-05
11 *188:96 0.0020998
12 *188:81 0.00217265
13 *188:79 0.00244419
14 *188:75 0.00331808
15 *188:69 0.00285591
16 *188:61 0.00360915
17 *188:35 0.00079384
18 *188:18 0.00193922
19 *188:16 0.00162399
20 *188:6 0.00176839
21 *1445:B1 *227:108 0.000367946
22 *1445:B1 *228:74 1.50365e-05
23 *1557:B2 *190:34 0
24 *188:6 *195:63 0.000100061
25 *188:6 *226:69 2.43944e-05
26 *188:16 *228:64 2.37688e-05
27 *188:18 *218:18 0.000135547
28 *188:18 *229:91 0
29 *188:35 *196:36 0.000830494
30 *188:69 *196:66 0.000135037
31 *188:69 *216:10 0.000487285
32 *188:75 *197:37 0.00124853
33 *188:75 *198:26 0.000126949
34 *188:79 *211:6 0.000639293
35 *188:128 *227:108 0
36 out[6] *188:18 0
37 *1477:A2 *188:35 0
38 *1477:B1 *188:35 8.35772e-06
39 *1514:A2 *188:16 0
40 *1535:A1 *1535:B1 0.000117071
41 *1535:A1 *188:96 3.47781e-05
42 *1552:A *188:35 3.98818e-05
43 *41:10 *188:96 0.00355516
44 *41:27 *188:96 0.000202477
45 *43:8 *188:61 0.00018536
46 *50:12 *1522:B1 0
47 *50:12 *188:18 0
48 *58:16 *188:16 0.000302358
49 *58:16 *188:61 0
50 *78:30 *1514:B2 2.34279e-05
51 *83:10 *188:128 0.000183102
52 *86:10 *188:61 0.000829245
53 *86:10 *188:128 0.000300168
54 *89:10 *188:96 0.000176429
55 *92:10 *1522:B1 5.58873e-06
56 *94:8 *188:69 0.00022034
57 *94:8 *188:75 0.000476497
58 *113:10 *188:115 8.31966e-06
59 *124:6 *1557:B2 0.000388126
60 *127:14 *188:69 0.000721914
61 *130:154 *188:128 9.86551e-06
62 *131:8 *188:18 0
63 *131:16 *1522:B1 0.000102551
64 *131:16 *188:18 0
65 *132:14 *188:69 0.000215421
66 *133:18 *188:96 4.17929e-05
67 *133:26 *1557:B2 0.000100283
68 *133:26 *188:96 7.20786e-05
69 *133:68 *188:18 0
70 *134:107 *188:16 0.000717349
71 *134:107 *188:18 0.000503195
72 *136:44 *1535:B1 1.17164e-05
73 *136:61 *1535:B1 3.70071e-06
74 *137:26 *188:75 0.000349386
75 *142:49 *188:96 0.00134156
76 *149:87 *188:75 2.34898e-05
77 *149:87 *188:115 3.52734e-05
78 *164:23 *188:96 0.000591534
79 *166:16 *188:128 9.67842e-05
80 *167:34 *188:96 0.000326792
81 *167:64 *188:96 0.000209079
82 *168:18 *188:115 2.76249e-05
83 *170:18 *188:79 0.000157785
84 *170:31 *1445:B1 0
85 *172:32 *188:79 9.5877e-05
86 *176:10 *188:75 0.000845564
87 *183:131 *188:16 0
88 *183:131 *188:61 0.000352233
89 *183:180 *1557:B2 0.000258511
90 *184:20 *1557:B2 0.000410379
91 *184:20 *188:96 0.000843578
92 *186:18 *188:115 3.20863e-05
*RES
1 *1444:X *188:6 25.0507 
2 *188:6 *188:16 30.8464 
3 *188:16 *188:18 15.6393 
4 *188:18 *1522:B1 43.8207 
5 *188:18 *188:35 27.4286 
6 *188:35 *1501:A 23 
7 *188:16 *1514:B2 39.1186 
8 *188:6 *188:61 37.5786 
9 *188:61 *188:69 46.2786 
10 *188:69 *188:75 37.4336 
11 *188:75 *188:79 45.6364 
12 *188:79 *188:81 15 
13 *188:81 *1557:B2 49.7864 
14 *188:81 *188:96 55.4314 
15 *188:96 *1535:B1 42.8057 
16 *188:69 *188:115 31.7141 
17 *188:115 *1545:B1 23 
18 *188:61 *188:128 44.5414 
19 *188:128 *1445:B1 47.6529 
*END

*D_NET *189 0.0150204
*CONN
*I *1446:B2 I *D sky130_fd_sc_hd__o22a_1
*I *1445:Y O *D sky130_fd_sc_hd__a21oi_1
*CAP
1 *1446:B2 0.000514214
2 *1445:Y 0.000661604
3 *189:16 0.00223728
4 *189:10 0.00281259
5 *189:8 0.00175113
6 *1446:B2 *205:78 9.92904e-05
7 *1446:B2 *227:81 5.56356e-05
8 *1446:B2 *227:94 0.000191417
9 *189:8 *205:42 4.9344e-05
10 *1426:A *189:10 6.533e-05
11 *33:30 *1446:B2 2.18286e-05
12 *34:12 *1446:B2 8.48003e-05
13 *35:12 *1446:B2 0.000100061
14 *45:29 *189:10 0.000354873
15 *45:33 *189:10 0.000714311
16 *47:39 *189:10 0.000303148
17 *47:41 *189:10 0.00237338
18 *131:48 *189:10 0.000200779
19 *140:24 *1446:B2 0
20 *144:28 *1446:B2 4.18831e-05
21 *150:20 *189:10 0.00200156
22 *158:33 *189:16 5.27215e-06
23 *168:36 *1446:B2 0.00038065
*RES
1 *1445:Y *189:8 45.2914 
2 *189:8 *189:10 42.4021 
3 *189:10 *189:16 48.7257 
4 *189:16 *1446:B2 49.3929 
*END

*D_NET *190 0.0147601
*CONN
*I *1447:C1 I *D sky130_fd_sc_hd__a311o_1
*I *1446:X O *D sky130_fd_sc_hd__o22a_1
*CAP
1 *1447:C1 0
2 *1446:X 0.00113768
3 *190:34 0.000877036
4 *190:28 0.00268032
5 *190:14 0.0022268
6 *190:6 0.00156119
7 *190:6 *199:25 1.35714e-05
8 *190:6 *227:64 0.000426354
9 *190:14 *206:62 0.000389951
10 *190:28 *195:44 5.06729e-06
11 *190:34 *205:21 0.00102986
12 *1447:B1 *190:34 0.000818136
13 *1557:B2 *190:34 0
14 *33:26 *190:14 0.00021425
15 *52:24 *190:34 0.000105005
16 *66:36 *190:14 0.000212121
17 *76:26 *190:28 3.73341e-05
18 *128:8 *190:34 0.00126216
19 *133:26 *190:34 0.00116843
20 *133:40 *190:28 1.8623e-05
21 *144:28 *190:6 0.000149672
22 *169:45 *190:28 0.000224777
23 *179:42 *190:28 0.000201777
*RES
1 *1446:X *190:6 37.4379 
2 *190:6 *190:14 37.395 
3 *190:14 *190:28 36.8644 
4 *190:28 *190:34 43.8032 
5 *190:34 *1447:C1 23 
*END

*D_NET *191 0.0109856
*CONN
*I *1481:B1 I *D sky130_fd_sc_hd__a211o_1
*I *1447:X O *D sky130_fd_sc_hd__a311o_1
*CAP
1 *1481:B1 0
2 *1447:X 0.000315409
3 *191:16 0.00145905
4 *191:10 0.00334607
5 *191:8 0.00220243
6 *191:8 *205:12 0.000140495
7 *191:10 *228:8 8.68472e-05
8 *191:10 *228:16 0
9 *1481:A1 *191:16 0.000348519
10 *1534:A1 *191:16 0.000225393
11 *1534:B1 *191:16 0.000580599
12 *1577:A *191:10 0
13 *56:58 *191:10 0.00228078
*RES
1 *1447:X *191:8 42.4329 
2 *191:8 *191:10 44.8671 
3 *191:10 *191:16 43.7514 
4 *191:16 *1481:B1 23 
*END

*D_NET *192 0.0310087
*CONN
*I *1450:A3 I *D sky130_fd_sc_hd__o31a_2
*I *1454:C I *D sky130_fd_sc_hd__and3_4
*I *1453:A2 I *D sky130_fd_sc_hd__a21oi_2
*I *1465:A2 I *D sky130_fd_sc_hd__o21a_1
*I *1448:X O *D sky130_fd_sc_hd__or2_4
*CAP
1 *1450:A3 0
2 *1454:C 0
3 *1453:A2 0
4 *1465:A2 0
5 *1448:X 0.000272966
6 *192:55 0.000250942
7 *192:46 0.000385091
8 *192:32 0.00235788
9 *192:30 0.00235788
10 *192:28 0.00157467
11 *192:26 0.00165053
12 *192:20 0.000365584
13 *192:16 0.0010573
14 *192:10 0.000906387
15 *192:10 *225:107 9.84794e-05
16 *192:16 *194:16 0.000784256
17 *192:20 *194:16 0.000390813
18 *192:20 *197:10 9.03784e-05
19 *192:20 *208:71 6.63781e-05
20 *192:20 *224:31 8.22585e-05
21 *192:20 *230:58 9.20311e-06
22 *192:26 *197:8 3.11472e-05
23 *192:26 *224:23 1.3523e-05
24 *192:28 *194:18 2.84809e-05
25 *192:28 *194:24 6.28799e-05
26 *192:28 *197:10 0.000149516
27 *192:28 *205:53 0.000416016
28 *192:28 *230:58 0.000319442
29 *192:32 *1465:B1 9.41704e-05
30 *192:32 *1507:B1 0.000178227
31 *192:32 *225:70 0.000309213
32 *192:46 *1454:B 0.000533701
33 *192:46 *198:10 0.000179803
34 *192:46 *224:31 0.000867974
35 *192:55 *1450:A2 0.00117157
36 *192:55 *224:41 1.59071e-05
37 *1465:A1 *192:32 8.71694e-05
38 *1517:B *192:10 6.17437e-06
39 *1556:A1 *192:32 8.11489e-05
40 *46:10 *192:28 0.000185696
41 *61:24 *192:46 2.1819e-05
42 *79:8 *192:32 0.000995045
43 *79:14 *192:32 0.0017985
44 *102:26 *192:28 0.00011563
45 *115:12 *192:46 0.000782419
46 *123:6 *192:32 5.7973e-05
47 *132:20 *192:28 0.000165304
48 *136:90 *192:28 0.00109713
49 *142:14 *192:28 6.33614e-05
50 *142:170 *192:46 0.00031526
51 *143:10 *192:10 0.000122945
52 *143:10 *192:16 2.30917e-05
53 *146:18 *192:28 0.000414861
54 *149:63 *192:10 0
55 *153:22 *192:32 0.0010451
56 *153:33 *192:32 0.00130341
57 *156:22 *192:32 0.000175903
58 *172:45 *192:55 0.001216
59 *181:16 *192:28 0.00165361
60 *181:28 *192:28 0.000235024
61 *181:40 *192:10 0.000161326
62 *181:40 *192:16 0.000846938
63 *181:40 *192:20 0.000417585
64 *183:18 *192:28 0.000229069
65 *186:24 *192:32 0.000318666
*RES
1 *1448:X *192:10 44.525 
2 *192:10 *192:16 12.8843 
3 *192:16 *192:20 23.5964 
4 *192:20 *192:26 16.595 
5 *192:26 *192:28 47.3321 
6 *192:28 *192:30 15 
7 *192:30 *192:32 61.6043 
8 *192:32 *1465:A2 23 
9 *192:20 *1453:A2 23 
10 *192:16 *192:46 30.8671 
11 *192:46 *1454:C 23 
12 *192:10 *192:55 28.485 
13 *192:55 *1450:A3 23 
*END

*D_NET *193 0.0229209
*CONN
*I *1591:A I *D sky130_fd_sc_hd__dlymetal6s2s_1
*I *1482:B1 I *D sky130_fd_sc_hd__o31a_4
*I *1456:A I *D sky130_fd_sc_hd__and3_1
*I *1507:B1 I *D sky130_fd_sc_hd__o21a_1
*I *1465:B1 I *D sky130_fd_sc_hd__o21a_1
*I *1449:Y O *D sky130_fd_sc_hd__nand3b_4
*CAP
1 *1591:A 0.000314489
2 *1482:B1 0
3 *1456:A 0.000621081
4 *1507:B1 0.000169044
5 *1465:B1 7.42282e-05
6 *1449:Y 0
7 *193:66 0.00108249
8 *193:56 0.0014153
9 *193:50 0.00191359
10 *193:18 0.000339365
11 *193:16 0.00144164
12 *193:8 0.00297763
13 *193:6 0.000986871
14 *1507:B1 *200:14 8.57262e-05
15 *1591:A *209:16 3.5379e-05
16 *1591:A *223:8 0.000137368
17 *1591:A *225:76 0.000191148
18 *193:8 *209:16 1.83667e-05
19 *193:8 *225:76 0.000257015
20 *193:50 *200:53 0.000184477
21 *193:50 *205:21 0.000515063
22 *193:66 *194:49 0.000159602
23 *1456:B *1456:A 4.96303e-05
24 *1456:C *1456:A 0.000374309
25 *1465:A1 *1465:B1 9.5877e-05
26 *1465:A1 *1507:B1 2.2017e-05
27 *1539:B1_N *193:56 0.000229126
28 *30:6 *1456:A 0.000146238
29 *30:6 *193:66 0.000930102
30 *32:16 *193:50 0.000179319
31 *39:8 *1507:B1 6.82228e-06
32 *40:29 *1591:A 0.000478569
33 *53:30 *193:8 0.000742382
34 *53:30 *193:16 0.000111106
35 *55:14 *193:56 0.000136738
36 *55:20 *193:16 0.000163343
37 *75:10 *193:56 0.000558843
38 *79:8 *1507:B1 0.000267093
39 *82:20 *193:8 0.000102328
40 *103:18 *193:16 0.000727341
41 *108:14 *193:56 0.00198971
42 *108:20 *193:56 4.34559e-05
43 *109:10 *1591:A 6.16531e-05
44 *121:10 *1465:B1 5.94125e-05
45 *121:10 *193:18 0.000236495
46 *122:20 *193:8 0.000440686
47 *122:20 *193:16 5.28551e-05
48 *136:22 *1465:B1 2.71291e-05
49 *136:22 *193:18 0.000119555
50 *138:16 *193:8 0
51 *155:32 *1591:A 0.000108723
52 *156:12 *193:50 0.00021677
53 *156:12 *193:66 0.000889236
54 *178:18 *193:66 0.00016174
55 *192:32 *1465:B1 9.41704e-05
56 *192:32 *1507:B1 0.000178227
*RES
1 *1449:Y *193:6 38 
2 *193:6 *193:8 17.7521 
3 *193:8 *193:16 47.8971 
4 *193:16 *193:18 3.31429 
5 *193:18 *1465:B1 39.9471 
6 *193:18 *1507:B1 42.9507 
7 *193:8 *193:50 46.095 
8 *193:50 *193:56 38.9871 
9 *193:56 *193:66 43.7336 
10 *193:66 *1456:A 34.4757 
11 *193:56 *1482:B1 23 
12 *193:6 *1591:A 46.6171 
*END

*D_NET *194 0.0232589
*CONN
*I *1472:B1 I *D sky130_fd_sc_hd__a21o_1
*I *1482:A3 I *D sky130_fd_sc_hd__o31a_4
*I *1451:B I *D sky130_fd_sc_hd__xnor2_2
*I *1450:X O *D sky130_fd_sc_hd__o31a_2
*CAP
1 *1472:B1 0
2 *1482:A3 0
3 *1451:B 0.000902866
4 *1450:X 0.000775148
5 *194:49 0.000695134
6 *194:39 0.00116106
7 *194:24 0.00194388
8 *194:18 0.000812885
9 *194:16 0.000887328
10 *194:8 0.00142467
11 *1451:B *204:34 0.00238379
12 *194:8 *1450:A2 9.1317e-05
13 *194:8 *224:41 0.00023274
14 *194:16 *208:71 0.000268267
15 *194:16 *215:14 0.00021677
16 *194:18 *230:58 0.000576209
17 *194:24 *204:34 0.000416308
18 *194:24 *204:83 0.000203234
19 *194:24 *210:91 2.82709e-05
20 *194:39 *228:78 0.000178517
21 *1431:B1 *194:16 4.5051e-05
22 *44:20 *194:39 0.000873679
23 *46:10 *194:24 0.000529886
24 *68:12 *1451:B 0.000376513
25 *68:16 *1451:B 0.00035183
26 *134:76 *194:8 0.000561975
27 *135:32 *194:49 0.000548311
28 *135:51 *194:49 0.000159911
29 *136:90 *194:24 0.000229797
30 *137:59 *1451:B 0.000422999
31 *137:59 *194:24 0.000165591
32 *137:63 *194:24 0.000309459
33 *141:16 *194:39 0.000868317
34 *141:62 *1451:B 0.000356126
35 *141:62 *194:24 5.3304e-05
36 *143:10 *194:16 0.000246551
37 *147:25 *194:39 0.000180841
38 *149:67 *194:18 0
39 *173:41 *194:49 0.000413422
40 *177:28 *194:49 0.00011385
41 *178:18 *194:49 0.000822996
42 *181:28 *194:24 0.000237255
43 *181:36 *194:16 0.000135037
44 *181:36 *194:18 0.00059479
45 *181:36 *194:24 3.70187e-05
46 *192:16 *194:16 0.000784256
47 *192:20 *194:16 0.000390813
48 *192:28 *194:18 2.84809e-05
49 *192:28 *194:24 6.28799e-05
50 *193:66 *194:49 0.000159602
*RES
1 *1450:X *194:8 49.5793 
2 *194:8 *194:16 48.5186 
3 *194:16 *194:18 8.59643 
4 *194:18 *194:24 31.3643 
5 *194:24 *1451:B 49.825 
6 *194:24 *194:39 44.1686 
7 *194:39 *194:49 49.9271 
8 *194:49 *1482:A3 23 
9 *194:18 *1472:B1 38 
*END

*D_NET *195 0.0249914
*CONN
*I *1469:B I *D sky130_fd_sc_hd__or2_1
*I *1452:B I *D sky130_fd_sc_hd__nand2_4
*I *1451:Y O *D sky130_fd_sc_hd__xnor2_2
*CAP
1 *1469:B 0
2 *1452:B 0
3 *1451:Y 0.000558836
4 *195:63 0.00183005
5 *195:52 0.000232926
6 *195:44 0.000821778
7 *195:30 0.00130766
8 *195:20 0.00290644
9 *195:16 0.00180276
10 *195:8 0.002004
11 *195:8 *204:27 0.000160073
12 *195:8 *204:34 6.27778e-05
13 *195:8 *210:28 0.00021677
14 *195:16 *222:39 0.00181593
15 *195:16 *222:85 0.000322276
16 *195:20 *211:14 8.40712e-05
17 *195:20 *211:56 0.00017505
18 *195:52 *226:27 0.000184125
19 *195:63 *226:69 0.000185866
20 *1460:B_N *195:63 0.000345553
21 *1496:A1 *195:63 0.0011513
22 *1544:B *195:52 0.000181794
23 *30:33 *195:16 0.000226148
24 *33:26 *195:16 0.000406184
25 *33:26 *195:30 0.000201454
26 *35:55 *195:63 9.41704e-05
27 *67:24 *195:20 0.000127194
28 *68:8 *195:20 0.000764631
29 *69:8 *195:30 0.000350485
30 *69:8 *195:63 5.3304e-05
31 *69:14 *195:16 3.41301e-05
32 *77:10 *195:44 0.000310884
33 *95:30 *195:52 0.000359888
34 *112:10 *195:16 4.2746e-05
35 *112:10 *195:52 0.000290755
36 *124:12 *195:44 0.000343979
37 *142:112 *195:63 0.0020525
38 *153:10 *195:20 0.000226352
39 *155:28 *195:16 5.09072e-05
40 *156:22 *195:16 0.00023379
41 *156:28 *195:30 0.000136743
42 *156:37 *195:16 0.00130959
43 *158:14 *195:63 0.000343532
44 *164:54 *195:30 0.000407208
45 *164:54 *195:52 2.66057e-05
46 *169:45 *195:16 0.000105077
47 *179:42 *195:44 2.95428e-06
48 *184:14 *195:30 3.50496e-05
49 *188:6 *195:63 0.000100061
50 *190:28 *195:44 5.06729e-06
*RES
1 *1451:Y *195:8 45.2914 
2 *195:8 *195:16 47.6059 
3 *195:16 *195:20 25.5332 
4 *195:20 *195:30 44.2929 
5 *195:30 *195:44 40.0671 
6 *195:44 *195:52 37.1257 
7 *195:52 *1452:B 23 
8 *195:20 *195:63 41.2836 
9 *195:63 *1469:B 23 
*END

*D_NET *196 0.0455304
*CONN
*I *1488:A2 I *D sky130_fd_sc_hd__a31o_1
*I *1470:A I *D sky130_fd_sc_hd__nand2_1
*I *1478:B I *D sky130_fd_sc_hd__nand3_1
*I *1490:A2 I *D sky130_fd_sc_hd__a311oi_4
*I *1477:A1 I *D sky130_fd_sc_hd__a21o_1
*I *1452:Y O *D sky130_fd_sc_hd__nand2_4
*CAP
1 *1488:A2 0.00019311
2 *1470:A 0
3 *1478:B 8.15352e-05
4 *1490:A2 0
5 *1477:A1 0
6 *1452:Y 0.00012202
7 *196:122 0.000734695
8 *196:114 0.00152061
9 *196:110 0.00130769
10 *196:95 0.00208781
11 *196:76 0.000575134
12 *196:68 0.00317164
13 *196:66 0.00147198
14 *196:47 0.00147286
15 *196:36 0.000679483
16 *196:26 0.00159926
17 *196:24 0.000798849
18 *196:14 0.00213946
19 *196:8 0.00146264
20 *196:8 *210:54 0
21 *196:14 *226:27 0.00151677
22 *196:14 *226:44 4.05745e-05
23 *196:24 *226:44 0.000161652
24 *196:24 *226:48 0.00107812
25 *196:36 *213:26 0
26 *196:36 *226:56 2.70469e-05
27 *196:47 *226:69 0
28 *196:66 *205:53 1.17152e-05
29 *196:76 *202:44 0.000847361
30 *196:76 *202:48 3.47781e-05
31 *196:76 *222:68 0.000192077
32 *196:114 *201:84 0
33 *196:114 *228:84 2.04774e-05
34 *196:122 *225:107 0.000525631
35 *1421:B *196:95 0
36 *1471:A3 *1488:A2 0.000700271
37 *1477:A2 *196:36 0.000646184
38 *1477:B1 *196:36 0.000102389
39 *1488:A3 *1488:A2 0.00101033
40 *1488:A3 *196:122 1.72202e-05
41 *1552:A *196:36 6.16283e-05
42 *35:18 *196:24 0.000294968
43 *37:10 *196:95 2.26497e-05
44 *37:10 *196:110 5.95452e-05
45 *42:10 *196:114 0.000110913
46 *42:42 *196:114 0.00190884
47 *45:17 *196:114 0
48 *45:80 *1478:B 7.15982e-05
49 *47:12 *196:36 0.000336448
50 *47:12 *196:47 6.77225e-05
51 *49:36 *1488:A2 0.000336919
52 *49:55 *196:66 0.000107011
53 *50:41 *1478:B 1.7768e-05
54 *53:70 *196:24 8.36198e-05
55 *53:91 *196:24 0.000390685
56 *60:16 *196:95 0.000226053
57 *60:47 *1488:A2 2.18506e-05
58 *60:47 *196:122 9.41704e-05
59 *61:18 *196:122 8.25833e-05
60 *64:10 *196:24 0.000919643
61 *72:23 *196:47 3.24739e-05
62 *72:23 *196:66 0.000186506
63 *73:12 *196:36 0.000855786
64 *73:12 *196:47 0.000512156
65 *74:12 *196:36 7.20089e-05
66 *74:26 *196:36 0.000160205
67 *74:26 *196:47 0.000129945
68 *80:10 *196:47 0.000366119
69 *102:14 *196:114 0.00132684
70 *114:8 *196:14 5.56279e-05
71 *116:10 *1478:B 5.3304e-05
72 *116:10 *196:76 1.74079e-05
73 *116:18 *196:76 4.49877e-05
74 *119:10 *196:24 4.57415e-05
75 *124:12 *196:8 9.03024e-06
76 *129:46 *196:122 8.25833e-05
77 *133:164 *196:114 2.76611e-06
78 *136:96 *196:66 0.000791626
79 *136:96 *196:68 0.000255113
80 *137:26 *196:14 2.56944e-05
81 *137:131 *196:114 0
82 *141:28 *196:47 0.000353852
83 *143:10 *196:95 0.000362885
84 *143:26 *196:68 0.000782834
85 *143:26 *196:95 2.55642e-05
86 *143:30 *196:47 0.00106734
87 *143:30 *196:66 9.77365e-05
88 *143:30 *196:68 0.000364218
89 *149:145 *196:95 0
90 *151:33 *196:68 0.0021642
91 *151:33 *196:95 0.000390681
92 *167:10 *196:68 5.34681e-05
93 *174:53 *196:110 0.000345553
94 *175:20 *196:110 0.000312772
95 *175:24 *196:110 0.000149337
96 *176:28 *196:24 0.000165744
97 *179:42 *196:8 2.81858e-05
98 *181:59 *196:76 0.000113153
99 *183:18 *196:66 0.000529373
100 *183:18 *196:68 0
101 *183:53 *196:114 0.000149138
102 *187:18 *196:76 0.00051686
103 *188:35 *196:36 0.000830494
104 *188:69 *196:66 0.000135037
*RES
1 *1452:Y *196:8 39.9057 
2 *196:8 *196:14 49.2021 
3 *196:14 *196:24 40.0643 
4 *196:24 *196:26 15 
5 *196:26 *196:36 38.9664 
6 *196:36 *1477:A1 23 
7 *196:26 *196:47 23.5729 
8 *196:47 *1490:A2 38 
9 *196:47 *196:66 45.515 
10 *196:66 *196:68 29.3729 
11 *196:68 *196:76 42.76 
12 *196:76 *1478:B 39.6727 
13 *196:68 *196:95 24.6335 
14 *196:95 *1470:A 38 
15 *196:95 *196:110 37.6643 
16 *196:110 *196:114 43.6686 
17 *196:114 *196:122 38.4929 
18 *196:122 *1488:A2 34.5793 
*END

*D_NET *197 0.0181139
*CONN
*I *1455:A1 I *D sky130_fd_sc_hd__o21ai_4
*I *1462:B I *D sky130_fd_sc_hd__or3_1
*I *1453:Y O *D sky130_fd_sc_hd__a21oi_2
*CAP
1 *1455:A1 0
2 *1462:B 0.000553554
3 *1453:Y 0.000127733
4 *197:37 0.00208449
5 *197:35 0.00208449
6 *197:33 0.000937193
7 *197:10 0.00190885
8 *197:8 0.000545833
9 *1462:B *208:71 1.01436e-05
10 *1462:B *210:91 1.14452e-05
11 *197:8 *224:23 6.17437e-06
12 *197:10 *208:71 0.000913062
13 *197:10 *230:58 0
14 *197:33 *209:114 0.000558717
15 *197:37 *198:26 0.000139768
16 *1421:A *197:33 1.09903e-05
17 *1462:A *1462:B 6.17437e-06
18 *42:10 *197:37 0.000568027
19 *45:80 *1462:B 9.50292e-05
20 *97:12 *197:37 0.00110517
21 *137:26 *197:37 0.000141917
22 *137:55 *197:37 0.000374036
23 *140:16 *197:37 0.000322232
24 *141:66 *197:33 0.000692922
25 *142:14 *197:10 0.000136486
26 *142:123 *197:37 0.000829682
27 *143:26 *1462:B 1.69668e-05
28 *148:148 *197:33 0.000356743
29 *158:45 *197:37 0.000646818
30 *171:10 *197:33 0.000588652
31 *176:10 *197:37 0.000179327
32 *176:24 *197:37 0.000119531
33 *181:16 *1462:B 2.17571e-05
34 *181:16 *197:10 7.26287e-05
35 *183:28 *197:37 0.00039255
36 *183:34 *197:33 2.64616e-05
37 *187:10 *1462:B 8.78733e-06
38 *188:75 *197:37 0.00124853
39 *192:20 *197:10 9.03784e-05
40 *192:26 *197:8 3.11472e-05
41 *192:28 *197:10 0.000149516
*RES
1 *1453:Y *197:8 39.5743 
2 *197:8 *197:10 12.47 
3 *197:10 *1462:B 45.1879 
4 *197:10 *197:33 37.8686 
5 *197:33 *197:35 15 
6 *197:35 *197:37 56.1357 
7 *197:37 *1455:A1 38 
*END

*D_NET *198 0.0216561
*CONN
*I *1462:C I *D sky130_fd_sc_hd__or3_1
*I *1455:A2 I *D sky130_fd_sc_hd__o21ai_4
*I *1454:X O *D sky130_fd_sc_hd__and3_4
*CAP
1 *1462:C 0
2 *1455:A2 0
3 *1454:X 0.000463657
4 *198:32 0.000367979
5 *198:26 0.0040204
6 *198:12 0.00431623
7 *198:10 0.00112747
8 *198:10 *1454:A 0.000187856
9 *198:26 *212:22 0.000737029
10 *198:26 *222:45 0.00268698
11 *61:24 *198:10 1.61361e-05
12 *63:10 *198:32 0.000349672
13 *106:24 *198:26 0
14 *115:12 *198:10 9.79925e-05
15 *115:18 *198:12 0.000207188
16 *116:18 *198:12 0.000986811
17 *134:12 *198:26 8.72141e-05
18 *134:23 *198:12 0.000628442
19 *134:23 *198:26 1.42262e-05
20 *134:76 *198:12 9.57021e-05
21 *137:73 *198:26 0.000444
22 *140:16 *198:26 0.000288059
23 *140:16 *198:32 0.000486792
24 *140:35 *198:26 0.000110915
25 *142:94 *198:12 2.87798e-05
26 *142:94 *198:26 0.000661232
27 *142:123 *198:32 0.000112878
28 *142:170 *198:10 0.000312772
29 *142:170 *198:12 5.71002e-06
30 *155:20 *198:26 8.92521e-05
31 *167:24 *198:26 0.00108624
32 *174:47 *198:26 0.000820574
33 *176:24 *198:26 0.000371391
34 *188:75 *198:26 0.000126949
35 *192:46 *198:10 0.000179803
36 *197:37 *198:26 0.000139768
*RES
1 *1454:X *198:10 47.6943 
2 *198:10 *198:12 20.2689 
3 *198:12 *198:26 45.3779 
4 *198:26 *198:32 33.1811 
5 *198:32 *1455:A2 23 
6 *198:12 *1462:C 38 
*END

*D_NET *199 0.0312554
*CONN
*I *1471:A2 I *D sky130_fd_sc_hd__a311o_4
*I *1550:A2 I *D sky130_fd_sc_hd__a31o_1
*I *1463:A I *D sky130_fd_sc_hd__and2_4
*I *1542:A I *D sky130_fd_sc_hd__nand2_1
*I *1455:Y O *D sky130_fd_sc_hd__o21ai_4
*CAP
1 *1471:A2 0
2 *1550:A2 0
3 *1463:A 0.000245741
4 *1542:A 0
5 *1455:Y 0
6 *199:63 0.00102472
7 *199:50 0.0011943
8 *199:42 0.00234161
9 *199:31 0.000657166
10 *199:27 0.00223511
11 *199:25 0.0019612
12 *199:16 0.000296131
13 *199:10 0.00129156
14 *199:4 0.00101035
15 *1463:A *211:64 0.000308029
16 *1463:A *230:54 0.000595973
17 *199:10 *227:64 2.95526e-05
18 *199:16 *220:34 0.000618259
19 *199:25 *227:64 7.61229e-06
20 *199:27 *227:64 0.000155772
21 *199:50 *224:8 3.36543e-05
22 *1386:B *199:50 7.43624e-05
23 *1550:A1 *199:50 0.001668
24 *1550:A3 *199:50 0.000344591
25 *38:31 *199:63 0.00139514
26 *66:32 *199:63 2.05503e-05
27 *67:12 *199:63 2.26497e-05
28 *68:8 *199:10 0
29 *81:20 *199:10 0.000605541
30 *92:16 *199:16 0.000104555
31 *106:24 *199:27 0.000107392
32 *107:10 *199:27 0.000346203
33 *110:8 *199:16 5.56356e-05
34 *117:6 *199:50 4.50767e-05
35 *128:12 *199:50 0.00127102
36 *130:12 *199:50 0.00051329
37 *131:33 *199:10 0.000268221
38 *134:117 *199:10 2.21997e-05
39 *134:117 *199:27 3.53859e-05
40 *137:131 *199:63 0
41 *138:33 *199:63 0.000215791
42 *144:28 *199:10 5.58003e-05
43 *144:28 *199:25 4.46854e-05
44 *145:22 *199:27 0.000142389
45 *145:24 *199:27 0.000113636
46 *148:10 *199:42 1.7992e-05
47 *148:10 *199:63 4.10714e-05
48 *148:46 *199:27 0.00131569
49 *155:20 *199:63 0.000225404
50 *168:12 *199:27 0.000280613
51 *168:12 *199:31 0.000528977
52 *168:12 *199:42 0.000265999
53 *168:12 *199:63 0.00139021
54 *171:16 *199:27 0
55 *171:20 *199:27 0.000206443
56 *172:18 *199:27 1.11462e-05
57 *174:22 *199:10 0.000251823
58 *174:24 *199:10 0.000329659
59 *174:24 *199:27 0
60 *174:47 *199:27 0.000235375
61 *175:24 *199:50 5.12254e-05
62 *175:26 *199:27 0.00314016
63 *175:26 *199:31 0.000251152
64 *175:26 *199:42 9.80568e-05
65 *181:131 *199:16 0.00112193
66 *190:6 *199:25 1.35714e-05
*RES
1 *1455:Y *199:4 23 
2 *199:4 *199:10 38.6557 
3 *199:10 *199:16 28.8579 
4 *199:16 *1542:A 23 
5 *199:4 *199:25 15.6214 
6 *199:25 *199:27 54.9032 
7 *199:27 *199:31 7.98536 
8 *199:31 *1463:A 44.815 
9 *199:31 *199:42 3.66643 
10 *199:42 *199:50 45.8021 
11 *199:50 *1550:A2 23 
12 *199:42 *199:63 43.3786 
13 *199:63 *1471:A2 23 
*END

*D_NET *200 0.0344252
*CONN
*I *1404:A I *D sky130_fd_sc_hd__clkbuf_4
*I *1410:A1 I *D sky130_fd_sc_hd__a31o_1
*I *1562:X O *D sky130_fd_sc_hd__dlymetal6s2s_1
*CAP
1 *1404:A 2.01521e-05
2 *1410:A1 0
3 *1562:X 0.000391597
4 *200:57 0.00142342
5 *200:53 0.00333253
6 *200:34 5.62067e-05
7 *200:28 0.00283805
8 *200:26 0.00278184
9 *200:24 0.00204052
10 *200:22 0.00236758
11 *200:18 0.00245536
12 *200:14 0.000590625
13 *1404:A *225:97 9.84851e-05
14 *200:14 *206:16 0.000102659
15 *200:14 *206:31 5.80856e-05
16 *200:22 *211:6 0.000371596
17 *200:57 *1409:B 0.000101708
18 *200:57 *210:22 0.00029807
19 *200:57 *211:56 0.000349335
20 *200:57 *215:12 0.000313243
21 *1507:B1 *200:14 8.57262e-05
22 *32:16 *200:53 0.000766618
23 *32:26 *200:24 0.000293785
24 *32:26 *200:53 0.000143279
25 *32:52 *200:57 1.01855e-05
26 *33:45 *200:57 0.00052127
27 *39:8 *200:14 0.000227529
28 *52:24 *200:53 4.68487e-05
29 *61:18 *200:57 0.000362983
30 *66:32 *200:53 0.00106317
31 *66:36 *200:24 0.000296026
32 *66:36 *200:53 0.00115493
33 *67:24 *200:53 0.00029609
34 *67:24 *200:57 0.000127537
35 *73:23 *200:34 0.000138718
36 *116:30 *200:57 3.21898e-05
37 *117:10 *200:53 0.000104065
38 *117:10 *200:57 0.000525876
39 *129:46 *200:57 0
40 *149:48 *1404:A 9.84851e-05
41 *153:22 *200:28 0.000224323
42 *153:33 *200:28 0.0031439
43 *153:39 *200:34 0.000138718
44 *155:55 *200:53 0.000463192
45 *169:45 *200:53 0
46 *170:18 *200:22 0.00204396
47 *180:27 *200:57 0.0016019
48 *181:107 *200:14 3.811e-06
49 *181:107 *200:18 0.000334549
50 *193:50 *200:53 0.000184477
*RES
1 *1562:X *200:14 45.7782 
2 *200:14 *200:18 19.5468 
3 *200:18 *200:22 46.1129 
4 *200:22 *200:24 4.01857 
5 *200:24 *200:26 15 
6 *200:26 *200:28 38.2593 
7 *200:28 *200:34 31.9057 
8 *200:34 *1410:A1 23 
9 *200:24 *200:53 44.528 
10 *200:53 *200:57 47.4089 
11 *200:57 *1404:A 39.0979 
*END

*D_NET *201 0.0434343
*CONN
*I *1448:B I *D sky130_fd_sc_hd__or2_4
*I *1409:C I *D sky130_fd_sc_hd__and4_1
*I *1400:B I *D sky130_fd_sc_hd__and4_2
*I *1408:A2 I *D sky130_fd_sc_hd__a22o_1
*I *1389:A I *D sky130_fd_sc_hd__buf_4
*I *1563:X O *D sky130_fd_sc_hd__buf_2
*CAP
1 *1448:B 0.000424691
2 *1409:C 0
3 *1400:B 0
4 *1408:A2 0
5 *1389:A 4.01155e-05
6 *1563:X 0.00099607
7 *201:84 0.00177498
8 *201:80 0.00194152
9 *201:71 0.00184346
10 *201:49 0.00140546
11 *201:43 0.00207807
12 *201:33 0.000915323
13 *201:31 0.00109561
14 *201:27 0.00219085
15 *201:23 0.00306464
16 *201:6 0.00151065
17 *1448:B *225:107 0.00105948
18 *201:6 *202:14 5.22919e-05
19 *201:6 *206:91 0.000362541
20 *201:23 *206:91 4.39607e-05
21 *201:33 *1400:D 0.00010018
22 *201:43 *222:16 0.000110419
23 *201:43 *225:14 0.000133752
24 *201:71 *1409:B 5.56356e-05
25 *201:71 *222:85 0.000428943
26 *201:71 *230:41 2.31687e-05
27 *201:80 *1409:B 5.56279e-05
28 *201:80 *230:41 6.06956e-05
29 *201:80 *230:54 0.000809148
30 *201:84 *212:22 0.000395343
31 *201:84 *228:84 0.000269692
32 *1457:B1 *201:71 0.000119153
33 *1471:C1 *1448:B 0.000493803
34 *1497:B *201:27 0.000377503
35 *1517:B *1448:B 0.000153145
36 *31:8 *201:71 9.4618e-05
37 *49:18 *201:84 0.00215755
38 *63:16 *201:49 0.000100326
39 *69:35 *201:23 0.000204794
40 *69:35 *201:27 0.000422378
41 *91:16 *201:27 0.00158729
42 *91:16 *201:31 0.000126114
43 *96:10 *201:43 0.000100069
44 *102:14 *201:84 0
45 *104:12 *201:23 0.000250054
46 *104:22 *201:27 0.00050347
47 *104:22 *201:31 0.000215322
48 *120:10 *201:31 1.02387e-05
49 *130:165 *1448:B 0.000100607
50 *131:33 *201:49 0.000463789
51 *131:148 *201:71 2.80822e-05
52 *133:12 *201:23 0.000139352
53 *133:44 *201:49 9.588e-06
54 *133:54 *201:43 1.14154e-05
55 *133:54 *201:49 0.000315488
56 *133:117 *201:71 0.000897269
57 *134:117 *201:49 0.00138784
58 *142:131 *201:49 0.00109042
59 *143:58 *201:27 0.000242666
60 *144:8 *201:33 0.000309954
61 *144:10 *201:31 0.000729202
62 *144:58 *201:27 0.00108579
63 *144:58 *201:31 0.00157615
64 *153:22 *201:31 0.000160191
65 *155:20 *1448:B 0.000150503
66 *161:10 *201:23 0.000530354
67 *161:10 *201:27 0.000583068
68 *163:6 *201:71 0.000642207
69 *170:22 *201:31 0.00188507
70 *181:115 *201:43 0.00093717
71 *196:114 *201:84 0
*RES
1 *1563:X *201:6 36.0086 
2 *201:6 *1389:A 23.8493 
3 *201:6 *201:23 26.6621 
4 *201:23 *201:27 41.9154 
5 *201:27 *201:31 46.5375 
6 *201:31 *201:33 5.38571 
7 *201:33 *201:43 43.0293 
8 *201:43 *201:49 30.6779 
9 *201:49 *1408:A2 23 
10 *201:33 *1400:B 23 
11 *201:23 *201:71 41.68 
12 *201:71 *1409:C 23 
13 *201:71 *201:80 25.6264 
14 *201:80 *201:84 45.4293 
15 *201:84 *1448:B 39.53 
*END

*D_NET *202 0.0226233
*CONN
*I *1450:A1 I *D sky130_fd_sc_hd__o31a_2
*I *1454:A I *D sky130_fd_sc_hd__and3_4
*I *1397:B I *D sky130_fd_sc_hd__nand2_2
*I *1392:A I *D sky130_fd_sc_hd__buf_4
*I *1564:X O *D sky130_fd_sc_hd__clkbuf_2
*CAP
1 *1450:A1 0.000433621
2 *1454:A 0.00013422
3 *1397:B 0
4 *1392:A 0
5 *1564:X 0.000503712
6 *202:48 0.00134746
7 *202:44 0.0014775
8 *202:35 0.00244064
9 *202:31 0.002223
10 *202:14 0.000382936
11 *202:6 0.00136688
12 *1450:A1 *1450:A2 5.3304e-05
13 *1450:A1 *222:68 0.000772199
14 *1450:A1 *224:41 5.3304e-05
15 *1450:A1 *229:59 6.10551e-06
16 *202:14 *206:91 0.000100061
17 *202:48 *222:68 0.000135639
18 *84:12 *1450:A1 1.80156e-05
19 *114:14 *202:35 0.000296004
20 *114:14 *202:44 0.000303342
21 *115:18 *202:48 0
22 *116:10 *202:48 8.47124e-05
23 *120:35 *202:31 0
24 *121:10 *202:14 0.000144795
25 *136:8 *202:14 0.000252131
26 *141:10 *202:35 5.11621e-05
27 *142:164 *202:48 0.00104207
28 *142:170 *1450:A1 0
29 *143:52 *202:35 0.00405522
30 *143:52 *202:44 0.000457231
31 *148:14 *202:35 0.000577988
32 *148:20 *202:31 1.22822e-05
33 *148:20 *202:35 0.000812951
34 *148:148 *202:35 0.000132374
35 *159:10 *202:31 0.000133316
36 *160:12 *202:14 0
37 *162:14 *202:31 9.64943e-05
38 *163:6 *202:31 5.3304e-05
39 *163:12 *202:31 0.000110913
40 *164:6 *202:31 0.000136743
41 *164:21 *202:35 0.000105749
42 *170:31 *202:48 0
43 *181:28 *202:44 9.41704e-05
44 *181:59 *202:44 0.00109949
45 *196:76 *202:44 0.000847361
46 *196:76 *202:48 3.47781e-05
47 *198:10 *1454:A 0.000187856
48 *201:6 *202:14 5.22919e-05
*RES
1 *1564:X *202:6 29.815 
2 *202:6 *202:14 40.0464 
3 *202:14 *1392:A 23 
4 *202:6 *202:31 38.8864 
5 *202:31 *202:35 48.7614 
6 *202:35 *1397:B 23 
7 *202:35 *202:44 35.155 
8 *202:44 *202:48 18.7257 
9 *202:48 *1454:A 40.0507 
10 *202:48 *1450:A1 48.9786 
*END

*D_NET *203 0.0244713
*CONN
*I *1405:A I *D sky130_fd_sc_hd__buf_4
*I *1450:A2 I *D sky130_fd_sc_hd__o31a_2
*I *1388:B I *D sky130_fd_sc_hd__nand2_2
*I *1565:X O *D sky130_fd_sc_hd__clkbuf_2
*CAP
1 *1405:A 0.000433602
2 *1450:A2 0.000529736
3 *1388:B 0
4 *1565:X 0.000110836
5 *203:35 0.00450386
6 *203:33 0.00397413
7 *203:31 0.00124362
8 *203:25 0.00210315
9 *203:16 0.00130732
10 *203:8 0.00271129
11 *1450:A2 *224:41 0.000172462
12 *203:16 *205:12 0.000493241
13 *203:16 *206:83 1.81896e-05
14 *203:16 *206:87 0.000293466
15 *203:16 *207:8 0.000100069
16 *203:25 *206:87 0.000548232
17 *203:31 *210:6 0.000376492
18 *1450:A1 *1450:A2 5.3304e-05
19 *1565:A *203:16 0.000124987
20 *1565:A *203:25 9.26098e-05
21 *12:17 *203:25 0
22 *13:17 *203:25 0
23 *16:17 *203:16 0
24 *17:17 *203:16 0
25 *21:17 *203:25 0
26 *21:17 *203:31 5.56356e-05
27 *39:24 *203:16 8.51167e-05
28 *39:24 *203:25 6.1709e-05
29 *93:22 *203:16 0.00029303
30 *93:22 *203:25 0.000368085
31 *131:121 *203:25 0
32 *134:76 *1450:A2 0.00050609
33 *138:14 *203:35 0.000175903
34 *138:33 *203:35 0.00181599
35 *159:21 *203:31 0.000168211
36 *168:8 *203:35 0.000143872
37 *172:6 *1450:A2 2.64616e-05
38 *172:16 *203:35 0.000163953
39 *172:45 *1450:A2 0.000153733
40 *192:55 *1450:A2 0.00117157
41 *194:8 *1450:A2 9.1317e-05
*RES
1 *1565:X *203:8 39.0979 
2 *203:8 *203:16 45.4086 
3 *203:16 *1388:B 23 
4 *203:8 *203:25 44.725 
5 *203:25 *203:31 31.3229 
6 *203:31 *203:33 15 
7 *203:33 *203:35 53.9814 
8 *203:35 *1450:A2 41.6429 
9 *203:31 *1405:A 45.8921 
*END

*D_NET *204 0.0432834
*CONN
*I *1472:A1 I *D sky130_fd_sc_hd__a21o_1
*I *1482:A2 I *D sky130_fd_sc_hd__o31a_4
*I *1553:A I *D sky130_fd_sc_hd__nor2_2
*I *1558:A1 I *D sky130_fd_sc_hd__a21oi_1
*I *1451:A I *D sky130_fd_sc_hd__xnor2_2
*I *1555:A1 I *D sky130_fd_sc_hd__a31o_1
*I *1566:X O *D sky130_fd_sc_hd__clkbuf_4
*CAP
1 *1472:A1 0
2 *1482:A2 0
3 *1553:A 0
4 *1558:A1 0.000937192
5 *1451:A 0
6 *1555:A1 6.95148e-05
7 *1566:X 0.000527355
8 *204:83 0.000397026
9 *204:61 0.00136691
10 *204:46 0.00332422
11 *204:38 0.00189092
12 *204:34 0.00223483
13 *204:27 0.00240388
14 *204:10 0.00128778
15 *204:8 0.0031825
16 *1558:A1 *211:41 0.000139875
17 *1558:A1 *226:27 2.34769e-05
18 *1558:A1 *226:44 2.18286e-05
19 *204:10 *1557:A1 0.000378248
20 *204:10 *229:20 0.000512813
21 *204:34 *210:28 0.00047725
22 *204:34 *210:91 0.00195784
23 *204:38 *205:38 0.00193718
24 *204:46 *218:10 7.03171e-05
25 *204:61 *1473:A 2.72894e-05
26 *204:61 *211:41 8.63965e-05
27 *204:61 *213:26 0
28 *204:83 *1472:A2 1.14452e-05
29 *204:83 *210:91 9.31675e-05
30 *1413:A1 *204:8 9.97159e-05
31 *1413:A2 *204:8 2.92911e-06
32 *1415:B *204:8 0.000188927
33 *1451:B *204:34 0.00238379
34 *1501:B *204:61 2.22079e-05
35 *1519:A1 *204:8 5.3304e-05
36 *1540:A2 *204:61 0.00011082
37 *1555:B1 *1555:A1 6.0734e-05
38 *1558:B1 *1558:A1 3.07432e-05
39 *46:10 *204:83 0.000556636
40 *49:12 *204:83 0.000124431
41 *49:65 *204:46 0.000471971
42 *49:65 *204:61 0
43 *53:76 *1558:A1 8.806e-05
44 *53:78 *204:61 0.000132861
45 *53:82 *204:61 0.00091257
46 *60:16 *204:38 0.000104065
47 *60:26 *204:46 0.000127035
48 *68:16 *204:34 1.71761e-05
49 *72:23 *204:61 0.000306511
50 *77:24 *204:46 2.31532e-05
51 *108:20 *204:38 2.96051e-05
52 *108:20 *204:46 0.000901048
53 *121:10 *204:10 0.00336001
54 *121:10 *204:27 0.000350168
55 *125:8 *1558:A1 0.000427255
56 *131:74 *204:27 0.00135662
57 *131:148 *204:27 0.000254663
58 *131:148 *204:34 0.000102389
59 *137:16 *1558:A1 0.000487193
60 *137:26 *1558:A1 0.000138607
61 *144:36 *204:46 0.00013757
62 *148:24 *204:10 0.000111401
63 *148:24 *204:27 0.000342367
64 *148:30 *204:10 0.00124269
65 *149:67 *204:83 0.000164072
66 *149:71 *204:38 5.77452e-05
67 *149:71 *204:83 6.95616e-05
68 *149:104 *204:46 3.3746e-05
69 *157:12 *204:8 5.56356e-05
70 *166:10 *204:38 3.79257e-05
71 *177:24 *204:46 0.000136201
72 *177:28 *204:38 6.02277e-06
73 *177:28 *204:46 9.95795e-05
74 *181:36 *204:83 3.92407e-05
75 *181:87 *204:10 0.000145296
76 *181:107 *1555:A1 4.67488e-05
77 *181:107 *204:10 0.000863879
78 *185:31 *204:38 0.00192313
79 *185:46 *204:38 0.000343753
80 *194:24 *204:34 0.000416308
81 *194:24 *204:83 0.000203234
82 *195:8 *204:27 0.000160073
83 *195:8 *204:34 6.27778e-05
*RES
1 *1566:X *204:8 45.2914 
2 *204:8 *204:10 45.5714 
3 *204:10 *1555:A1 39.595 
4 *204:8 *204:27 43.6893 
5 *204:27 *1451:A 23 
6 *204:27 *204:34 33.0186 
7 *204:34 *204:38 46.1336 
8 *204:38 *204:46 40.5614 
9 *204:46 *1558:A1 41.1457 
10 *204:46 *204:61 43.855 
11 *204:61 *1553:A 38 
12 *204:38 *1482:A2 38 
13 *204:34 *204:83 40.9993 
14 *204:83 *1472:A1 23 
*END

*D_NET *205 0.0336767
*CONN
*I *1446:A1 I *D sky130_fd_sc_hd__o22a_1
*I *1473:A I *D sky130_fd_sc_hd__xnor2_2
*I *1445:A1 I *D sky130_fd_sc_hd__a21oi_1
*I *1482:A1 I *D sky130_fd_sc_hd__o31a_4
*I *1447:A1 I *D sky130_fd_sc_hd__a311o_1
*I *1567:X O *D sky130_fd_sc_hd__buf_2
*CAP
1 *1446:A1 0
2 *1473:A 0.000258503
3 *1445:A1 0
4 *1482:A1 0
5 *1447:A1 2.01555e-05
6 *1567:X 0
7 *205:78 0.00153308
8 *205:53 0.00288724
9 *205:42 0.00145475
10 *205:38 0.00213249
11 *205:34 0.00186291
12 *205:27 0.000106881
13 *205:21 0.00319656
14 *205:12 0.00382668
15 *205:6 0.00080636
16 *205:12 *1447:A2 1.83408e-05
17 *205:12 *206:16 0.000705058
18 *205:12 *206:83 0.000508247
19 *205:21 *1447:A2 2.19764e-05
20 *205:42 *1445:A2 6.17437e-06
21 *205:78 *227:81 0.000111658
22 *1446:B2 *205:78 9.92904e-05
23 *1447:B1 *1447:A1 5.55743e-06
24 *1447:B1 *205:21 2.19403e-05
25 *1540:A2 *1473:A 4.64239e-05
26 *1569:A *205:12 0.000209821
27 *32:26 *205:78 4.67739e-05
28 *46:10 *205:53 0
29 *49:55 *205:53 2.26406e-05
30 *49:63 *205:53 0.000153823
31 *62:20 *205:78 0.000534763
32 *72:23 *1473:A 0.000456087
33 *72:23 *205:53 0.00140793
34 *77:24 *205:78 3.63287e-05
35 *78:22 *205:78 7.35173e-05
36 *93:22 *205:12 0.000262586
37 *102:26 *1473:A 9.72743e-05
38 *102:26 *205:53 0.000213497
39 *130:67 *205:78 0
40 *135:28 *205:21 0.000115115
41 *140:24 *205:78 5.16812e-05
42 *144:28 *205:78 2.93431e-05
43 *146:18 *205:53 7.01841e-05
44 *149:71 *205:38 0.00167232
45 *156:12 *205:21 0.00244818
46 *156:12 *205:34 0.000125096
47 *156:12 *205:53 0.000335646
48 *166:10 *205:38 0.000125187
49 *177:28 *205:27 0.00020862
50 *183:18 *205:53 8.55814e-05
51 *183:22 *205:42 0.00043563
52 *185:31 *205:27 0.00020862
53 *189:8 *205:42 4.9344e-05
54 *190:34 *205:21 0.00102986
55 *191:8 *205:12 0.000140495
56 *192:28 *205:53 0.000416016
57 *193:50 *205:21 0.000515063
58 *196:66 *205:53 1.17152e-05
59 *203:16 *205:12 0.000493241
60 *204:38 *205:38 0.00193718
61 *204:61 *1473:A 2.72894e-05
*RES
1 *1567:X *205:6 38 
2 *205:6 *205:12 38.7593 
3 *205:12 *1447:A1 23.4971 
4 *205:12 *205:21 56.3636 
5 *205:21 *205:27 32.9621 
6 *205:27 *1482:A1 23 
7 *205:21 *205:34 1.57429 
8 *205:34 *205:38 41.2036 
9 *205:38 *205:42 32.2964 
10 *205:42 *1445:A1 23 
11 *205:34 *205:53 41.4625 
12 *205:53 *1473:A 44.3075 
13 *205:53 *205:78 38.2439 
14 *205:78 *1446:A1 23 
*END

*D_NET *206 0.0374674
*CONN
*I *1483:A I *D sky130_fd_sc_hd__xnor2_2
*I *1500:A I *D sky130_fd_sc_hd__nand2_1
*I *1499:A I *D sky130_fd_sc_hd__nor2_1
*I *1507:A1 I *D sky130_fd_sc_hd__o21a_1
*I *1568:X O *D sky130_fd_sc_hd__buf_2
*CAP
1 *1483:A 0
2 *1500:A 0.00102061
3 *1499:A 0
4 *1507:A1 0
5 *1568:X 6.27375e-05
6 *206:91 0.00155399
7 *206:87 0.00211836
8 *206:83 0.000941869
9 *206:62 0.00314111
10 *206:58 0.0021205
11 *206:56 0.000567921
12 *206:43 0.000909448
13 *206:35 0.00184679
14 *206:31 0.00124074
15 *206:16 0.00147381
16 *206:8 0.00104272
17 *206:43 *1499:B 6.29487e-05
18 *206:56 *222:10 0.000603417
19 *206:56 *222:31 0.000476996
20 *206:56 *227:39 0.000403766
21 *206:62 *227:81 0.000430854
22 *206:91 *209:77 0.000584994
23 *1401:A1 *1500:A 0.000264773
24 *1407:B1 *1500:A 2.06822e-05
25 *1417:A_N *206:31 0.000181174
26 *1504:A3 *206:62 0.000175903
27 *1565:A *206:87 0.000207453
28 *39:20 *206:31 3.85802e-05
29 *39:24 *206:83 0.000250839
30 *39:24 *206:87 0.00188618
31 *53:30 *206:56 0.000183253
32 *56:20 *206:91 1.83327e-05
33 *56:58 *206:16 0.00110506
34 *56:58 *206:83 0.000441317
35 *69:35 *206:91 9.84851e-05
36 *71:8 *206:91 0.000240281
37 *72:8 *206:43 0.000117679
38 *73:6 *1500:A 2.11859e-05
39 *73:12 *1500:A 1.861e-05
40 *76:26 *206:56 4.51746e-05
41 *77:24 *206:62 7.59217e-06
42 *93:22 *206:16 0.000208809
43 *93:22 *206:87 0.000407144
44 *111:24 *206:35 0.000136141
45 *111:24 *206:43 0.000124574
46 *120:10 *206:35 0.000194327
47 *120:10 *206:43 0.00166427
48 *120:27 *206:35 0.000713532
49 *122:20 *206:56 8.22387e-05
50 *130:89 *206:62 0.00045853
51 *133:12 *206:91 0.000150954
52 *140:24 *206:62 0.000553581
53 *145:10 *1500:A 9.06164e-05
54 *145:10 *206:62 0.000817465
55 *145:22 *206:62 0.000218068
56 *157:12 *206:83 0.000365817
57 *163:16 *206:35 0.000457208
58 *163:16 *206:43 0.000811671
59 *181:107 *206:31 0
60 *183:176 *206:62 0.000599177
61 *184:10 *206:62 0.000356634
62 *190:14 *206:62 0.000389951
63 *200:14 *206:16 0.000102659
64 *200:14 *206:31 5.80856e-05
65 *201:6 *206:91 0.000362541
66 *201:23 *206:91 4.39607e-05
67 *202:14 *206:91 0.000100061
68 *203:16 *206:83 1.81896e-05
69 *203:16 *206:87 0.000293466
70 *203:25 *206:87 0.000548232
71 *205:12 *206:16 0.000705058
72 *205:12 *206:83 0.000508247
*RES
1 *1568:X *206:8 38.6214 
2 *206:8 *206:16 33.56 
3 *206:16 *1507:A1 23 
4 *206:16 *206:31 41.6 
5 *206:31 *206:35 27.1179 
6 *206:35 *206:43 42.7364 
7 *206:43 *1499:A 23 
8 *206:35 *206:56 44.6657 
9 *206:56 *206:58 15 
10 *206:58 *206:62 43.0443 
11 *206:62 *1500:A 35.7807 
12 *206:8 *206:83 43.2779 
13 *206:83 *206:87 39.795 
14 *206:87 *206:91 31.1336 
15 *206:91 *1483:A 23 
*END

*D_NET *207 0.0260343
*CONN
*I *1512:A1 I *D sky130_fd_sc_hd__o21a_1
*I *1506:A I *D sky130_fd_sc_hd__xnor2_4
*I *1513:A1 I *D sky130_fd_sc_hd__a31oi_2
*I *1569:X O *D sky130_fd_sc_hd__clkbuf_4
*CAP
1 *1512:A1 0.00126547
2 *1506:A 0
3 *1513:A1 4.89752e-05
4 *1569:X 0.000724277
5 *207:40 0.00334902
6 *207:31 0.00064768
7 *207:25 0.00433201
8 *207:21 0.00301535
9 *207:10 0.0017927
10 *207:8 0.00105343
11 *207:10 *219:22 0.000128671
12 *207:21 *219:12 1.35834e-05
13 *207:21 *229:47 0.000514628
14 *207:25 *208:44 0.000137537
15 *207:31 *229:59 0.00016906
16 *207:31 *229:74 0.000813278
17 *207:40 *208:44 0.00026503
18 *207:40 *208:59 0.000189452
19 *1441:B *207:40 0.000125341
20 *1516:A3 *207:21 3.27827e-05
21 *56:56 *1513:A1 4.67488e-05
22 *109:18 *207:21 0.0002837
23 *109:20 *207:10 0.000383754
24 *109:20 *207:21 2.63687e-05
25 *120:35 *207:21 0.00141488
26 *121:10 *207:21 0.000310732
27 *132:10 *207:8 9.79925e-05
28 *136:16 *207:21 0.000768863
29 *136:22 *207:10 0.000791545
30 *136:22 *207:21 0.00125508
31 *137:171 *207:31 0
32 *138:8 *207:31 0
33 *162:27 *207:21 0.000451669
34 *181:70 *1513:A1 9.41704e-05
35 *186:89 *1512:A1 0.0013905
36 *203:16 *207:8 0.000100069
*RES
1 *1569:X *207:8 46.7207 
2 *207:8 *207:10 10.7093 
3 *207:10 *1513:A1 39.0979 
4 *207:10 *207:21 43.1064 
5 *207:21 *207:25 35.155 
6 *207:25 *207:31 43.5264 
7 *207:31 *1506:A 23 
8 *207:25 *207:40 27.4361 
9 *207:40 *1512:A1 47.2046 
*END

*D_NET *208 0.0303867
*CONN
*I *1385:A I *D sky130_fd_sc_hd__or2_2
*I *1443:A I *D sky130_fd_sc_hd__or3b_1
*I *1441:A I *D sky130_fd_sc_hd__nand2_2
*I *1449:A_N I *D sky130_fd_sc_hd__nand3b_4
*I *1436:A I *D sky130_fd_sc_hd__nand2_2
*I *1570:X O *D sky130_fd_sc_hd__buf_2
*CAP
1 *1385:A 1.55776e-05
2 *1443:A 0
3 *1441:A 0
4 *1449:A_N 0
5 *1436:A 0
6 *1570:X 0.000890639
7 *208:71 0.000592554
8 *208:67 0.00187537
9 *208:59 0.00204651
10 *208:44 0.00213403
11 *208:28 0.000649774
12 *208:14 0.000649774
13 *208:12 0.00122071
14 *208:10 0.00333281
15 *208:6 0.00161682
16 *1385:A *209:85 5.56356e-05
17 *208:10 *225:97 0
18 *208:12 *209:16 0.000855615
19 *208:28 *1449:C 0.000178227
20 *208:28 *209:16 0.000267096
21 *208:28 *209:28 0.000188301
22 *208:28 *210:32 0
23 *1394:A *208:10 0.000603929
24 *1441:B *208:44 0.000391698
25 *1462:B *208:71 1.01436e-05
26 *1523:A1 *208:6 5.40337e-05
27 *37:23 *208:59 0
28 *49:18 *208:59 9.40132e-05
29 *55:31 *208:28 0.000551854
30 *61:24 *1385:A 5.56356e-05
31 *82:20 *208:12 0.0001646
32 *89:6 *208:6 0.000575004
33 *93:10 *208:6 1.56011e-05
34 *97:16 *208:28 0.000233367
35 *133:146 *208:10 0
36 *133:179 *208:6 0.00158038
37 *133:179 *208:10 0
38 *134:27 *208:67 0.00156238
39 *135:36 *208:28 2.31687e-05
40 *136:61 *208:12 0.000141879
41 *136:150 *208:10 0.000269884
42 *136:150 *208:12 0.000928459
43 *137:171 *208:10 0
44 *138:8 *208:10 2.04774e-05
45 *138:16 *208:10 0.000492284
46 *138:16 *208:12 0.00286922
47 *143:10 *208:71 0.000522038
48 *143:26 *208:71 0.000121173
49 *147:25 *208:28 0.000649164
50 *156:41 *208:28 4.71384e-05
51 *192:20 *208:71 6.63781e-05
52 *194:16 *208:71 0.000268267
53 *197:10 *208:71 0.000913062
54 *207:25 *208:44 0.000137537
55 *207:40 *208:44 0.00026503
56 *207:40 *208:59 0.000189452
*RES
1 *1570:X *208:6 46.49 
2 *208:6 *208:10 33.1043 
3 *208:10 *208:12 39.2329 
4 *208:12 *208:14 15 
5 *208:14 *208:28 48.3529 
6 *208:28 *1436:A 23 
7 *208:14 *1449:A_N 23 
8 *208:10 *208:44 38.9871 
9 *208:44 *1441:A 23 
10 *208:44 *208:59 28.2364 
11 *208:59 *208:67 48.85 
12 *208:67 *208:71 33.1043 
13 *208:71 *1443:A 23 
14 *208:59 *1385:A 38.6214 
*END

*D_NET *209 0.0381917
*CONN
*I *1442:A I *D sky130_fd_sc_hd__nor2_4
*I *1443:C_N I *D sky130_fd_sc_hd__or3b_1
*I *1385:B I *D sky130_fd_sc_hd__or2_2
*I *1449:B I *D sky130_fd_sc_hd__nand3b_4
*I *1436:B I *D sky130_fd_sc_hd__nand2_2
*I *1502:A1 I *D sky130_fd_sc_hd__a211o_1
*I *1571:X O *D sky130_fd_sc_hd__clkbuf_4
*CAP
1 *1442:A 0
2 *1443:C_N 0
3 *1385:B 1.46487e-05
4 *1449:B 0
5 *1436:B 0
6 *1502:A1 0
7 *1571:X 0.00190149
8 *209:114 0.000489455
9 *209:106 0.000540988
10 *209:102 0.000883361
11 *209:85 0.00156393
12 *209:77 0.00237636
13 *209:54 0.00240063
14 *209:50 0.00255254
15 *209:46 0.000299139
16 *209:36 0.000549692
17 *209:28 0.00092476
18 *209:16 0.00177451
19 *209:10 0.00368418
20 *209:6 0.00267456
21 *209:16 *225:76 7.75329e-06
22 *209:36 *210:32 8.64455e-05
23 *209:36 *210:40 0
24 *209:77 *215:14 0.000596028
25 *209:106 *230:54 7.15126e-05
26 *1385:A *209:85 5.56356e-05
27 *1394:A *209:10 0.000342488
28 *1502:B1 *209:54 3.40134e-05
29 *1591:A *209:16 3.5379e-05
30 *33:14 *209:46 0.00021677
31 *55:6 *209:54 0.00165564
32 *55:31 *209:36 0
33 *56:52 *209:28 0.000131538
34 *60:16 *209:102 0.000195356
35 *61:24 *209:85 6.50258e-05
36 *61:24 *209:102 0.000572752
37 *69:14 *209:50 0.000396055
38 *71:10 *209:16 0
39 *71:10 *209:28 0.000437162
40 *75:10 *209:54 5.61255e-06
41 *81:32 *209:16 0.000191591
42 *94:8 *209:36 0.000182666
43 *95:18 *209:36 1.55417e-05
44 *95:18 *209:46 0.000110258
45 *97:16 *209:28 0.000136507
46 *97:18 *209:28 6.38342e-05
47 *108:14 *209:54 0.000327384
48 *108:20 *209:54 0.000426329
49 *109:10 *209:16 0.00078575
50 *111:24 *209:10 0
51 *112:10 *209:46 0.000108129
52 *129:8 *209:85 0.000568443
53 *130:165 *209:102 0.000210112
54 *135:36 *209:28 0.000447436
55 *135:51 *209:114 0.000109157
56 *136:61 *209:16 0.000139647
57 *136:90 *209:114 0.000262907
58 *136:150 *209:10 0.00100631
59 *136:150 *209:16 0.000191157
60 *137:112 *209:85 0.000289355
61 *137:131 *209:85 1.0092e-05
62 *138:8 *209:10 0.000108681
63 *148:40 *209:46 0.000219094
64 *156:22 *209:50 0.000137744
65 *156:37 *209:50 0.000270532
66 *156:41 *209:16 8.43466e-05
67 *169:20 *209:102 0.000544508
68 *173:41 *209:102 0.000572322
69 *173:41 *209:114 0.000203675
70 *179:40 *209:28 0
71 *185:10 *209:85 0.000134279
72 *185:31 *209:54 2.02872e-05
73 *185:46 *209:114 0.000165177
74 *186:8 *209:106 0.000139974
75 *193:8 *209:16 1.83667e-05
76 *197:33 *209:114 0.000558717
77 *206:91 *209:77 0.000584994
78 *208:12 *209:16 0.000855615
79 *208:28 *209:16 0.000267096
80 *208:28 *209:28 0.000188301
*RES
1 *1571:X *209:6 46.49 
2 *209:6 *209:10 33.4564 
3 *209:10 *209:16 47.0243 
4 *209:16 *209:28 43.92 
5 *209:28 *209:36 36.0693 
6 *209:36 *209:46 49.0807 
7 *209:46 *209:50 20.4271 
8 *209:50 *209:54 31.9621 
9 *209:54 *1502:A1 23 
10 *209:28 *1436:B 23 
11 *209:16 *1449:B 23 
12 *209:10 *209:77 38.1793 
13 *209:77 *209:85 42.2629 
14 *209:85 *1385:B 23.4971 
15 *209:85 *209:102 35.9836 
16 *209:102 *209:106 16.5743 
17 *209:106 *209:114 42.1179 
18 *209:114 *1443:C_N 23 
19 *209:106 *1442:A 23 
*END

*D_NET *210 0.0377955
*CONN
*I *1438:A I *D sky130_fd_sc_hd__or2_1
*I *1479:A I *D sky130_fd_sc_hd__and3_2
*I *1443:B I *D sky130_fd_sc_hd__or3b_1
*I *1449:C I *D sky130_fd_sc_hd__nand3b_4
*I *1437:A I *D sky130_fd_sc_hd__nor2_4
*I *1384:A I *D sky130_fd_sc_hd__inv_2
*I *1572:X O *D sky130_fd_sc_hd__clkbuf_4
*CAP
1 *1438:A 0
2 *1479:A 0.00013744
3 *1443:B 0
4 *1449:C 0.000147065
5 *1437:A 0.000122816
6 *1384:A 0.000421547
7 *1572:X 0
8 *210:121 0.000660991
9 *210:91 0.00220465
10 *210:54 0.00234337
11 *210:40 0.00246373
12 *210:32 0.00121445
13 *210:28 0.00147668
14 *210:22 0.00360697
15 *210:18 0.000750875
16 *210:10 0.000655163
17 *210:6 0.00324436
18 *210:4 0.00219409
19 *210:28 *223:10 0.000561825
20 *210:40 *222:31 0.000182574
21 *210:54 *222:31 0.001118
22 *1395:A2 *210:6 9.47033e-05
23 *1462:B *210:91 1.14452e-05
24 *1479:C *1479:A 8.30586e-05
25 *1481:C1 *210:54 0.000352283
26 *1533:A *210:121 0.000135037
27 *30:14 *1437:A 0.00021677
28 *30:14 *210:40 0.000271909
29 *31:14 *210:28 0
30 *32:39 *210:22 0.00110655
31 *32:52 *210:10 0.000186772
32 *32:52 *210:18 0.000111204
33 *32:52 *210:22 0.000321572
34 *32:65 *210:10 0.000560101
35 *41:38 *210:10 0
36 *53:6 *210:18 9.41704e-05
37 *55:31 *210:28 0
38 *55:31 *210:32 0
39 *55:31 *210:40 0.000679015
40 *61:18 *210:121 0.000457956
41 *66:32 *210:22 0.000103966
42 *68:40 *210:10 0.000380541
43 *68:40 *210:18 0.000115564
44 *72:8 *1384:A 0.00048446
45 *94:8 *1437:A 0.000107381
46 *94:8 *210:40 0.000148403
47 *95:18 *210:32 0.000540458
48 *96:10 *210:54 4.62582e-05
49 *97:18 *210:54 0
50 *102:6 *210:121 4.05745e-05
51 *117:10 *210:22 0.000801429
52 *124:12 *210:54 0.000236539
53 *129:36 *210:121 0.000186147
54 *129:46 *210:121 5.3304e-05
55 *130:73 *210:54 0.000260984
56 *130:83 *210:54 0.000127993
57 *133:40 *210:54 0
58 *134:33 *1479:A 0.000304656
59 *134:56 *210:6 0.000310653
60 *137:63 *210:91 3.32912e-05
61 *139:8 *210:6 5.3304e-05
62 *143:26 *210:91 0
63 *147:25 *1449:C 0.00013883
64 *156:41 *1449:C 0.000108256
65 *179:20 *1449:C 0.000136743
66 *179:20 *210:28 0
67 *179:42 *210:54 0
68 *180:19 *210:28 0.000106075
69 *180:19 *210:32 0.000114259
70 *180:23 *1479:A 0.000137533
71 *181:16 *210:91 0.000217869
72 *181:123 *210:54 0.000598344
73 *194:24 *210:91 2.82709e-05
74 *195:8 *210:28 0.00021677
75 *196:8 *210:54 0
76 *200:57 *210:22 0.00029807
77 *203:31 *210:6 0.000376492
78 *204:34 *210:28 0.00047725
79 *204:34 *210:91 0.00195784
80 *204:83 *210:91 9.31675e-05
81 *208:28 *1449:C 0.000178227
82 *208:28 *210:32 0
83 *209:36 *210:32 8.64455e-05
84 *209:36 *210:40 0
*RES
1 *1572:X *210:4 23 
2 *210:4 *210:6 36.83 
3 *210:6 *210:10 25.3571 
4 *210:10 *210:18 32.6514 
5 *210:18 *210:22 34.5129 
6 *210:22 *210:28 31.4471 
7 *210:28 *210:32 26.0614 
8 *210:32 *210:40 28.9304 
9 *210:40 *210:54 40.6518 
10 *210:54 *1384:A 47.6736 
11 *210:32 *1437:A 26.0243 
12 *210:28 *1449:C 42.9093 
13 *210:22 *210:91 49.7171 
14 *210:91 *1443:B 38 
15 *210:10 *1479:A 41.48 
16 *210:6 *210:121 43.2571 
17 *210:121 *1438:A 23 
*END

*D_NET *211 0.0324036
*CONN
*I *1409:B I *D sky130_fd_sc_hd__and4_1
*I *1397:A I *D sky130_fd_sc_hd__nand2_2
*I *1387:A I *D sky130_fd_sc_hd__buf_4
*I *1408:A1 I *D sky130_fd_sc_hd__a22o_1
*I *1573:X O *D sky130_fd_sc_hd__clkbuf_2
*CAP
1 *1409:B 0.000139709
2 *1397:A 0
3 *1387:A 0
4 *1408:A1 0.000107661
5 *1573:X 0
6 *211:70 9.05708e-05
7 *211:64 0.00159952
8 *211:56 0.00330246
9 *211:41 0.000940051
10 *211:24 0.00225755
11 *211:14 0.00236308
12 *211:8 0.00280705
13 *211:6 0.00173781
14 *211:4 0.00173781
15 *211:24 *212:12 4.51815e-05
16 *211:24 *229:91 3.27752e-05
17 *211:64 *230:41 0.000162154
18 *211:64 *230:54 8.4763e-05
19 *1463:A *211:64 0.000308029
20 *1558:A1 *211:41 0.000139875
21 *30:10 *211:56 0.000526385
22 *30:27 *211:56 0.000762773
23 *32:16 *211:56 0.000549434
24 *32:26 *211:14 0.000248065
25 *32:26 *211:56 0.000143839
26 *33:45 *1409:B 4.96264e-05
27 *33:45 *211:56 1.12487e-05
28 *36:16 *211:64 0.000627485
29 *44:20 *211:70 0.000160182
30 *47:12 *211:41 0.000138859
31 *47:39 *211:41 0.000214469
32 *53:70 *211:14 0.000687456
33 *53:76 *211:41 0.000651924
34 *55:14 *211:56 7.89973e-05
35 *63:10 *211:24 6.12496e-06
36 *67:24 *211:14 0.000157793
37 *68:8 *211:14 0.000343842
38 *78:30 *211:41 0.00014064
39 *88:24 *211:24 0.000224817
40 *91:28 *211:14 0.000270096
41 *117:10 *211:56 0.00199986
42 *118:10 *1408:A1 0.000253916
43 *118:10 *211:41 0.000144842
44 *130:43 *211:70 1.01436e-05
45 *135:22 *1408:A1 0.000202416
46 *135:22 *211:41 0.000136464
47 *142:123 *211:24 2.05503e-05
48 *148:60 *211:14 0.000182826
49 *152:16 *1408:A1 2.35393e-05
50 *153:8 *211:64 5.3304e-05
51 *153:10 *211:56 0.000958036
52 *155:55 *211:14 7.80302e-05
53 *169:10 *211:56 1.28035e-05
54 *169:20 *211:56 0.000164281
55 *169:20 *211:70 6.99679e-05
56 *170:18 *211:6 0.00221356
57 *173:8 *211:14 0
58 *176:24 *211:24 6.73288e-05
59 *184:10 *211:14 4.29197e-05
60 *188:79 *211:6 0.000639293
61 *195:20 *211:14 8.40712e-05
62 *195:20 *211:56 0.00017505
63 *200:22 *211:6 0.000371596
64 *200:57 *1409:B 0.000101708
65 *200:57 *211:56 0.000349335
66 *201:71 *1409:B 5.56356e-05
67 *201:80 *1409:B 5.56279e-05
68 *204:61 *211:41 8.63965e-05
*RES
1 *1573:X *211:4 23 
2 *211:4 *211:6 39.6886 
3 *211:6 *211:8 15 
4 *211:8 *211:14 42.2807 
5 *211:14 *211:24 33.6955 
6 *211:24 *1408:A1 41.4904 
7 *211:24 *211:41 34.8754 
8 *211:41 *1387:A 23 
9 *211:8 *211:56 48.865 
10 *211:56 *211:64 35.7971 
11 *211:64 *211:70 32.2579 
12 *211:70 *1397:A 23 
13 *211:56 *1409:B 40.6514 
*END

*D_NET *212 0.0272915
*CONN
*I *1581:A I *D sky130_fd_sc_hd__buf_2
*I *1521:X O *D sky130_fd_sc_hd__a31o_1
*CAP
1 *1581:A 0.000170739
2 *1521:X 7.19915e-05
3 *212:22 0.00802593
4 *212:12 0.00792718
5 *212:22 *228:84 0.000129592
6 out[0] *1581:A 1.27424e-05
7 *65:10 *1581:A 0
8 *74:26 *212:22 0.00137291
9 *78:22 *212:22 0.00156662
10 *102:14 *212:22 0.000107024
11 *106:24 *212:22 0
12 *113:16 *212:22 0.000364511
13 *114:10 *212:22 0.000566635
14 *119:10 *212:22 0.000219181
15 *126:12 *212:22 0.000223973
16 *137:148 *212:22 0.00188972
17 *149:87 *212:22 0.00014199
18 *149:169 *212:22 0.00114358
19 *155:20 *212:22 0.000469312
20 *158:45 *212:12 2.47132e-05
21 *176:24 *212:22 0.00163823
22 *176:28 *212:12 4.73652e-05
23 *198:26 *212:22 0.000737029
24 *201:84 *212:22 0.000395343
25 *211:24 *212:12 4.51815e-05
*RES
1 *1521:X *212:12 46.7721 
2 *212:12 *212:22 48.8733 
3 *212:22 *1581:A 41.1382 
*END

*D_NET *213 0.0350697
*CONN
*I *1582:A I *D sky130_fd_sc_hd__buf_2
*I *1532:X O *D sky130_fd_sc_hd__dlymetal6s2s_1
*CAP
1 *1582:A 0.000171855
2 *1532:X 0.000157591
3 *213:32 0.00244975
4 *213:30 0.00355573
5 *213:26 0.0020128
6 *213:20 0.00173097
7 *213:12 0.00342212
8 *213:10 0.00242611
9 *213:8 0.000157591
10 *213:12 *219:30 4.24114e-05
11 *213:12 *219:34 0.00126327
12 *213:26 *226:56 0
13 *213:32 *214:10 0.00466182
14 out[1] *213:32 0
15 *1501:B *213:26 6.48049e-05
16 *47:12 *213:26 3.72639e-05
17 *50:29 *213:32 0.000270921
18 *61:28 *213:32 0
19 *62:10 *213:32 0.000539321
20 *72:23 *213:26 0.00049722
21 *74:12 *213:26 2.2781e-05
22 *80:10 *213:26 0.000238194
23 *87:10 *213:32 0.0028993
24 *133:60 *213:30 0.00137838
25 *133:75 *213:30 0.000139352
26 *133:86 *213:30 0.000228001
27 *133:88 *213:32 0.0027935
28 *136:116 *213:26 0.000217247
29 *168:44 *213:20 5.56356e-05
30 *169:49 *213:8 0.000159037
31 *170:22 *213:8 0.000345195
32 *174:10 *213:12 0.00245432
33 *186:34 *213:20 0.000677169
34 *196:36 *213:26 0
35 *204:61 *213:26 0
*RES
1 *1532:X *213:8 42.7229 
2 *213:8 *213:10 15 
3 *213:10 *213:12 40.6414 
4 *213:12 *213:20 45.1629 
5 *213:20 *213:26 45.9914 
6 *213:26 *213:30 34.2021 
7 *213:30 *213:32 92.0543 
8 *213:32 *1582:A 41.0036 
*END

*D_NET *214 0.014589
*CONN
*I *1583:A I *D sky130_fd_sc_hd__buf_2
*I *1540:X O *D sky130_fd_sc_hd__a31o_1
*CAP
1 *1583:A 0.000154007
2 *1540:X 0.00169116
3 *214:10 0.0015426
4 *214:8 0.0013886
5 *214:6 0.00169116
6 *214:6 *227:94 6.08482e-05
7 out[2] *214:10 5.58873e-06
8 *50:29 *214:10 0.000848168
9 *59:35 *214:10 0.00254507
10 *61:28 *214:10 0
11 *213:32 *214:10 0.00466182
*RES
1 *1540:X *214:6 42.6786 
2 *214:6 *214:8 15 
3 *214:8 *214:10 61.4179 
4 *214:10 *1583:A 40.5271 
*END

*D_NET *215 0.0152271
*CONN
*I *1584:A I *D sky130_fd_sc_hd__buf_2
*I *1549:X O *D sky130_fd_sc_hd__a221o_1
*CAP
1 *1584:A 0.000102758
2 *1549:X 0.000930888
3 *215:18 0.00112182
4 *215:14 0.00382476
5 *215:12 0.00298624
6 *215:6 0.00111144
7 *215:14 *228:84 2.93747e-05
8 *215:18 *1475:A 0
9 *1431:A2 *215:14 0.000188934
10 *1431:B1 *215:14 0.000413998
11 *1503:C1 *215:14 2.46906e-05
12 *1528:B *215:6 2.45549e-06
13 *1549:A1 *215:6 0.000144501
14 *1549:B1 *215:6 0.000494338
15 *33:45 *215:12 0.000307963
16 *52:10 *215:18 0
17 *83:10 *215:18 0.00194372
18 *116:30 *215:6 0.000171765
19 *169:26 *215:14 1.61361e-05
20 *175:10 *215:14 2.02872e-05
21 *181:36 *215:14 2.02872e-05
22 *183:53 *215:14 9.78729e-06
23 *183:70 *215:14 0.000224315
24 *186:63 *215:6 1.06206e-05
25 *194:16 *215:14 0.00021677
26 *200:57 *215:12 0.000313243
27 *209:77 *215:14 0.000596028
*RES
1 *1549:X *215:6 35.5321 
2 *215:6 *215:12 34.3707 
3 *215:12 *215:14 44.9293 
4 *215:14 *215:18 40.8514 
5 *215:18 *1584:A 39.5743 
*END

*D_NET *216 0.00248867
*CONN
*I *1585:A I *D sky130_fd_sc_hd__buf_2
*I *1561:X O *D sky130_fd_sc_hd__clkbuf_1
*CAP
1 *1585:A 0
2 *1561:X 0.000620449
3 *216:10 0.000620449
4 *86:10 *216:10 0.000380243
5 *182:18 *216:10 0.000380243
6 *188:69 *216:10 0.000487285
*RES
1 *1561:X *216:10 49.89 
2 *216:10 *1585:A 38 
*END

*D_NET *217 0.013231
*CONN
*I *1586:A I *D sky130_fd_sc_hd__buf_2
*I *1481:X O *D sky130_fd_sc_hd__a211o_1
*CAP
1 *1586:A 0.000538909
2 *1481:X 0
3 *217:10 0.00155822
4 *217:6 0.00476434
5 *217:4 0.00374504
6 *217:10 *227:104 0.000662194
7 *1481:A2 *217:6 7.90102e-05
8 *1486:B *1586:A 0.000358915
9 *51:10 *217:10 0.00017192
10 *131:8 *217:10 0.000312088
11 *131:16 *217:10 0.00032023
12 *131:44 *217:10 0.000387892
13 *136:106 *217:10 0.000332236
*RES
1 *1481:X *217:4 23 
2 *217:4 *217:6 46.3586 
3 *217:6 *217:10 43.6686 
4 *217:10 *1586:A 46.7414 
*END

*D_NET *218 0.00577302
*CONN
*I *1587:A I *D sky130_fd_sc_hd__buf_2
*I *1505:X O *D sky130_fd_sc_hd__a21o_1
*CAP
1 *1587:A 2.88183e-05
2 *1505:X 0.000514119
3 *218:18 0.00123096
4 *218:10 0.00171626
5 *218:10 *221:8 9.79925e-05
6 *1540:A2 *218:10 9.8788e-06
7 *1540:B1 *218:10 5.5792e-05
8 *46:10 *218:10 9.41865e-05
9 *49:65 *218:10 0
10 *53:78 *218:10 3.09001e-05
11 *53:82 *218:10 9.32509e-05
12 *133:60 *1587:A 0.000144501
13 *134:109 *218:18 0.0013727
14 *134:150 *218:18 8.264e-05
15 *135:6 *1587:A 8.15864e-05
16 *144:51 *218:10 1.358e-05
17 *188:18 *218:18 0.000135547
18 *204:46 *218:10 7.03171e-05
*RES
1 *1505:X *218:10 48.3986 
2 *218:10 *218:18 48.2493 
3 *218:18 *1587:A 39.5743 
*END

*D_NET *219 0.0337129
*CONN
*I *1588:A I *D sky130_fd_sc_hd__buf_6
*I *1516:X O *D sky130_fd_sc_hd__a31o_4
*CAP
1 *1588:A 0
2 *1516:X 8.6709e-05
3 *219:34 0.000911655
4 *219:30 0.00119468
5 *219:26 0.00119109
6 *219:22 0.0058948
7 *219:12 0.00507345
8 *219:22 *229:20 0.00319288
9 *219:22 *229:47 0.00283782
10 *219:26 *227:21 1.22906e-05
11 *219:34 *226:56 0.000304672
12 *1476:B *219:34 0.000271936
13 *29:12 *219:34 7.51453e-06
14 *48:45 *219:34 0.000277792
15 *50:8 *219:34 0.00258647
16 *82:8 *219:26 0.000334187
17 *93:22 *219:22 0.00139547
18 *101:8 *219:26 0
19 *104:22 *219:22 0
20 *111:24 *219:22 0.000381351
21 *120:6 *219:30 0.000250118
22 *120:6 *219:34 0.000526277
23 *121:10 *219:22 0.00101138
24 *130:97 *219:26 0.000742654
25 *136:16 *219:22 0.000148302
26 *136:22 *219:22 0.000491161
27 *173:12 *219:30 0.00139331
28 *174:10 *219:30 0.00174699
29 *207:10 *219:22 0.000128671
30 *207:21 *219:12 1.35834e-05
31 *213:12 *219:30 4.24114e-05
32 *213:12 *219:34 0.00126327
*RES
1 *1516:X *219:12 46.7721 
2 *219:12 *219:22 42.5565 
3 *219:22 *219:26 33.6325 
4 *219:26 *219:30 20.1757 
5 *219:30 *219:34 42.0914 
6 *219:34 *1588:A 23 
*END

*D_NET *220 0.0205036
*CONN
*I *1590:A I *D sky130_fd_sc_hd__dlygate4sd1_1
*I *1542:B I *D sky130_fd_sc_hd__nand2_1
*I *1589:X O *D sky130_fd_sc_hd__dlygate4sd1_1
*CAP
1 *1590:A 2.77218e-05
2 *1542:B 0
3 *1589:X 0.000391486
4 *220:34 0.00107133
5 *220:32 0.00229007
6 *220:22 0.00291383
7 *220:16 0.00343455
8 *220:8 0.00215867
9 *220:8 *224:8 0.00048142
10 *1434:A *220:34 0.00022093
11 *32:26 *220:22 9.86551e-06
12 *34:12 *220:22 0
13 *35:12 *1590:A 5.3304e-05
14 *35:33 *220:22 0.000234332
15 *35:63 *220:16 0
16 *35:63 *220:22 0
17 *44:16 *220:16 0.000108681
18 *44:31 *220:16 1.01436e-05
19 *48:16 *220:32 8.61094e-06
20 *48:45 *220:32 0.000535971
21 *92:16 *220:34 0.00013672
22 *94:16 *220:16 0.000695911
23 *107:6 *220:34 0.000634945
24 *134:134 *220:32 8.58022e-05
25 *137:43 *220:22 0.000770741
26 *137:53 *220:16 9.79794e-05
27 *137:53 *220:22 4.39967e-05
28 *141:62 *220:16 0.000131517
29 *144:30 *1590:A 2.64616e-05
30 *152:16 *220:22 0.00078734
31 *152:16 *220:32 0.000682562
32 *158:33 *220:22 9.7015e-05
33 *158:49 *220:34 0.000351513
34 *168:36 *220:32 0
35 *176:55 *220:34 2.07921e-05
36 *178:8 *220:32 9.03364e-06
37 *178:8 *220:34 1.59071e-05
38 *181:131 *220:34 5.57162e-05
39 *186:18 *220:16 0.00129048
40 *199:16 *220:34 0.000618259
*RES
1 *1589:X *220:8 43.3857 
2 *220:8 *220:16 35.5146 
3 *220:16 *220:22 32.5732 
4 *220:22 *220:32 38.5936 
5 *220:32 *220:34 27.3014 
6 *220:34 *1542:B 23 
7 *220:22 *1590:A 38.6214 
*END

*D_NET *221 0.00108375
*CONN
*I *1540:A1 I *D sky130_fd_sc_hd__a31o_1
*I *1590:X O *D sky130_fd_sc_hd__dlygate4sd1_1
*CAP
1 *1540:A1 0
2 *1590:X 0.000208363
3 *221:8 0.000208363
4 *221:8 *227:94 0.000480823
5 *1540:B1 *221:8 2.31063e-05
6 *144:30 *221:8 5.84691e-05
7 *144:51 *221:8 6.63159e-06
8 *218:10 *221:8 9.79925e-05
*RES
1 *1590:X *221:8 28.8829 
2 *221:8 *1540:A1 23 
*END

*D_NET *222 0.0431564
*CONN
*I *1409:D I *D sky130_fd_sc_hd__and4_1
*I *1399:A2 I *D sky130_fd_sc_hd__a22oi_4
*I *1390:A I *D sky130_fd_sc_hd__buf_4
*I *1400:C I *D sky130_fd_sc_hd__and4_2
*I *1574:X O *D sky130_fd_sc_hd__buf_2
*CAP
1 *1409:D 0
2 *1399:A2 0.000177164
3 *1390:A 0
4 *1400:C 0
5 *1574:X 0.0013222
6 *222:85 0.000652684
7 *222:68 0.00181435
8 *222:66 0.00189057
9 *222:53 0.000542794
10 *222:45 0.0037844
11 *222:39 0.00436198
12 *222:37 0.00101449
13 *222:31 0.00159142
14 *222:16 0.000770577
15 *222:10 0.00339078
16 *222:16 *225:14 0.000290392
17 *222:31 *227:39 6.08617e-05
18 *222:85 *230:41 0.00040881
19 *1450:A1 *222:68 0.000772199
20 *1475:B *222:66 0.000404466
21 *49:6 *222:66 4.69418e-05
22 *50:41 *222:68 2.42715e-05
23 *52:10 *222:68 0.000136609
24 *52:24 *222:45 0
25 *65:10 *222:68 0.000218962
26 *69:14 *222:85 0.000104255
27 *69:46 *222:85 0.000195422
28 *76:16 *222:45 0.000418023
29 *91:24 *222:16 9.39882e-05
30 *95:18 *222:31 0
31 *103:10 *222:16 0
32 *103:18 *222:37 0.000403344
33 *112:10 *222:39 0.0018184
34 *112:10 *222:85 0.00100132
35 *122:16 *222:16 3.88725e-05
36 *124:12 *222:31 0.000167355
37 *128:8 *222:16 9.22316e-05
38 *130:51 *222:45 0.000502841
39 *133:168 *1399:A2 1.23353e-05
40 *134:6 *222:53 0.000437703
41 *134:12 *222:53 1.24376e-05
42 *137:90 *222:66 0.000315263
43 *137:90 *222:68 6.86795e-05
44 *142:94 *222:53 0.000859928
45 *142:94 *222:66 0.0003981
46 *142:164 *222:68 0.00104207
47 *142:170 *222:68 0
48 *143:26 *222:45 1.40476e-05
49 *164:48 *222:31 0
50 *167:24 *222:45 0.00085506
51 *169:45 *222:39 0.000155936
52 *172:45 *222:68 3.76157e-05
53 *179:40 *222:31 0
54 *179:42 *222:31 0
55 *181:59 *222:68 1.47563e-05
56 *184:14 *222:10 0.000142678
57 *184:14 *222:31 0.000927288
58 *184:20 *222:16 8.0612e-06
59 *187:26 *222:53 0.000863089
60 *187:26 *222:66 0.000405171
61 *195:16 *222:39 0.00181593
62 *195:16 *222:85 0.000322276
63 *196:76 *222:68 0.000192077
64 *198:26 *222:45 0.00268698
65 *201:43 *222:16 0.000110419
66 *201:71 *222:85 0.000428943
67 *202:48 *222:68 0.000135639
68 *206:56 *222:10 0.000603417
69 *206:56 *222:31 0.000476996
70 *210:40 *222:31 0.000182574
71 *210:54 *222:31 0.001118
*RES
1 *1574:X *222:10 43.6729 
2 *222:10 *222:16 45.9914 
3 *222:16 *1400:C 23 
4 *222:10 *222:31 44.9736 
5 *222:31 *222:37 34.4329 
6 *222:37 *222:39 24.9711 
7 *222:39 *222:45 23.784 
8 *222:45 *222:53 31.9961 
9 *222:53 *1390:A 23 
10 *222:45 *222:66 40.0361 
11 *222:66 *222:68 38.8807 
12 *222:68 *1399:A2 41.0243 
13 *222:39 *222:85 33.9639 
14 *222:85 *1409:D 23 
*END

*D_NET *223 0.00470423
*CONN
*I *1592:A I *D sky130_fd_sc_hd__clkbuf_2
*I *1457:A2 I *D sky130_fd_sc_hd__a21oi_1
*I *1591:X O *D sky130_fd_sc_hd__dlymetal6s2s_1
*CAP
1 *1592:A 0.000124882
2 *1457:A2 0
3 *1591:X 0.000136229
4 *223:10 0.000704975
5 *223:8 0.000716321
6 *1591:A *223:8 0.000137368
7 *40:29 *223:8 0.00014375
8 *55:31 *1592:A 0
9 *117:6 *1592:A 5.3304e-05
10 *128:12 *1592:A 5.3304e-05
11 *131:148 *1592:A 1.93308e-05
12 *131:148 *223:10 0.000289907
13 *142:71 *223:10 0.000163677
14 *155:32 *223:8 0.000210786
15 *180:19 *1592:A 0.000163352
16 *180:19 *223:10 0.00122522
17 *210:28 *223:10 0.000561825
*RES
1 *1591:X *223:8 42.4329 
2 *223:8 *223:10 17.0479 
3 *223:10 *1457:A2 38 
4 *223:10 *1592:A 40.8793 
*END

*D_NET *224 0.0157489
*CONN
*I *1453:A1 I *D sky130_fd_sc_hd__a21oi_2
*I *1454:B I *D sky130_fd_sc_hd__and3_4
*I *1450:B1 I *D sky130_fd_sc_hd__o31a_2
*I *1472:A2 I *D sky130_fd_sc_hd__a21o_1
*I *1592:X O *D sky130_fd_sc_hd__clkbuf_2
*CAP
1 *1453:A1 0
2 *1454:B 0.000115245
3 *1450:B1 0
4 *1472:A2 7.36429e-05
5 *1592:X 0
6 *224:41 0.00071577
7 *224:31 0.00137636
8 *224:23 0.000841763
9 *224:8 0.00171742
10 *224:4 0.00134736
11 *224:31 *230:58 0.000567939
12 *224:41 *229:59 5.58873e-06
13 *1386:B *224:8 0.000142636
14 *1450:A1 *224:41 5.3304e-05
15 *1450:A2 *224:41 0.000172462
16 *1453:B1 *224:23 5.56356e-05
17 *35:71 *224:8 0.000348212
18 *43:30 *224:8 0.000228925
19 *44:8 *224:8 5.3304e-05
20 *61:24 *1454:B 0.000520606
21 *61:24 *224:31 0.0009522
22 *115:12 *224:31 4.05745e-05
23 *115:18 *224:41 2.14599e-05
24 *117:6 *224:8 0.000348905
25 *128:12 *224:8 0.000308039
26 *128:27 *224:8 0.000168411
27 *130:12 *224:8 2.46906e-05
28 *142:170 *224:41 0.000787512
29 *149:67 *1472:A2 0.000165034
30 *149:67 *224:23 0.000258374
31 *172:45 *224:41 1.08287e-05
32 *175:20 *224:8 0.000306156
33 *175:24 *224:8 0.000721192
34 *176:8 *224:8 0.000434136
35 *181:36 *1472:A2 7.34717e-05
36 *181:36 *224:23 0.000125899
37 *181:40 *224:31 0.000387028
38 *192:20 *224:31 8.22585e-05
39 *192:26 *224:23 1.3523e-05
40 *192:46 *1454:B 0.000533701
41 *192:46 *224:31 0.000867974
42 *192:55 *224:41 1.59071e-05
43 *194:8 *224:41 0.00023274
44 *197:8 *224:23 6.17437e-06
45 *199:50 *224:8 3.36543e-05
46 *204:83 *1472:A2 1.14452e-05
47 *220:8 *224:8 0.00048142
*RES
1 *1592:X *224:4 23 
2 *224:4 *224:8 46.1129 
3 *224:8 *1472:A2 40.2579 
4 *224:8 *224:23 21.1936 
5 *224:23 *224:31 48.5186 
6 *224:31 *224:41 46.82 
7 *224:41 *1450:B1 23 
8 *224:31 *1454:B 28.8621 
9 *224:23 *1453:A1 23 
*END

*D_NET *225 0.0465306
*CONN
*I *1399:B1 I *D sky130_fd_sc_hd__a22oi_4
*I *1395:B1 I *D sky130_fd_sc_hd__a22o_1
*I *1400:D I *D sky130_fd_sc_hd__and4_2
*I *1393:A I *D sky130_fd_sc_hd__buf_4
*I *1575:X O *D sky130_fd_sc_hd__buf_2
*CAP
1 *1399:B1 0
2 *1395:B1 0
3 *1400:D 6.84795e-05
4 *1393:A 0
5 *1575:X 0.00101931
6 *225:107 0.000830114
7 *225:103 0.000932898
8 *225:97 0.00104278
9 *225:84 0.00158389
10 *225:82 0.000845322
11 *225:76 0.00177923
12 *225:70 0.00166863
13 *225:64 0.000901333
14 *225:44 8.65312e-05
15 *225:36 0.000822516
16 *225:28 0.00111555
17 *225:24 0.000835859
18 *225:14 0.000924126
19 *225:10 0.00222917
20 *225:10 *228:31 0.000736687
21 *225:24 *227:21 0.000189272
22 *225:64 *228:31 0.000116748
23 *225:64 *230:20 0.000374137
24 *225:84 *230:10 0.000660501
25 *225:97 *229:74 0.000276209
26 *225:107 *1448:A 5.41288e-05
27 *1404:A *225:97 9.84851e-05
28 *1448:B *225:107 0.00105948
29 *1471:C1 *225:107 4.75751e-05
30 *1488:A3 *225:107 0.000353428
31 *1510:B *225:24 9.41704e-05
32 *1510:B *225:28 0.00173687
33 *1510:C *225:24 6.16439e-05
34 *1517:B *225:107 5.2459e-05
35 *1518:A2 *225:103 0.000101136
36 *1591:A *225:76 0.000191148
37 *40:14 *225:84 0.000454041
38 *40:20 *225:64 8.93766e-05
39 *41:27 *225:82 0.000429894
40 *42:26 *225:76 8.62876e-05
41 *42:42 *225:107 2.64616e-05
42 *47:20 *225:44 5.56356e-05
43 *47:22 *225:24 4.56951e-05
44 *47:22 *225:28 0.00182201
45 *49:36 *225:107 6.88253e-05
46 *52:24 *225:64 0.000183334
47 *53:30 *225:76 0.00108513
48 *53:126 *225:84 8.5886e-05
49 *57:23 *225:24 0.000178517
50 *57:27 *225:36 5.94125e-05
51 *57:35 *225:36 3.47781e-05
52 *57:44 *225:28 5.3304e-05
53 *57:44 *225:44 5.3304e-05
54 *60:41 *225:103 0.000209817
55 *63:44 *225:36 3.83778e-05
56 *70:16 *225:64 0.0011909
57 *71:10 *225:76 0.00259727
58 *76:16 *225:76 0.000302076
59 *76:26 *225:64 1.16551e-05
60 *80:14 *225:28 1.41129e-05
61 *80:14 *225:36 0.000909359
62 *82:20 *225:76 0.000129945
63 *103:10 *225:14 0
64 *103:10 *225:24 0
65 *109:10 *225:76 0.00157677
66 *128:8 *225:14 0.000792585
67 *128:8 *225:24 0.000195248
68 *130:97 *225:64 0.000217236
69 *133:137 *225:84 0.000143759
70 *133:146 *225:84 1.63599e-05
71 *133:146 *225:97 0.000429249
72 *133:150 *225:97 0.00199937
73 *133:168 *225:107 0.00290302
74 *136:61 *225:82 0.000261951
75 *138:16 *225:84 0
76 *138:16 *225:97 0
77 *139:10 *225:84 0.000210849
78 *143:8 *225:107 0.000694099
79 *144:28 *225:10 0.000570188
80 *144:28 *225:64 0.000214047
81 *148:10 *225:103 0.000108681
82 *149:48 *225:97 0.000717713
83 *153:22 *225:70 0.000310914
84 *155:20 *225:107 0.000256913
85 *168:36 *225:44 8.4047e-05
86 *192:10 *225:107 9.84794e-05
87 *192:32 *225:70 0.000309213
88 *193:8 *225:76 0.000257015
89 *196:122 *225:107 0.000525631
90 *201:33 *1400:D 0.00010018
91 *201:43 *225:14 0.000133752
92 *208:10 *225:97 0
93 *209:16 *225:76 7.75329e-06
94 *222:16 *225:14 0.000290392
*RES
1 *1575:X *225:10 44.2736 
2 *225:10 *225:14 26.0614 
3 *225:14 *225:24 39.7979 
4 *225:24 *225:28 35.155 
5 *225:28 *225:36 41.3514 
6 *225:36 *225:44 31.8229 
7 *225:44 *1393:A 23 
8 *225:14 *1400:D 39.5743 
9 *225:10 *225:64 37.3921 
10 *225:64 *225:70 33.48 
11 *225:70 *225:76 48.4507 
12 *225:76 *225:82 34.9093 
13 *225:82 *225:84 18.1043 
14 *225:84 *1395:B1 38 
15 *225:84 *225:97 48.4743 
16 *225:97 *225:103 32.9621 
17 *225:103 *225:107 39.585 
18 *225:107 *1399:B1 23 
*END

*D_NET *226 0.026857
*CONN
*I *1557:A1 I *D sky130_fd_sc_hd__o22a_1
*I *1555:A2 I *D sky130_fd_sc_hd__a31o_1
*I *1469:A I *D sky130_fd_sc_hd__or2_1
*I *1553:B I *D sky130_fd_sc_hd__nor2_2
*I *1558:A2 I *D sky130_fd_sc_hd__a21oi_1
*I *1452:A I *D sky130_fd_sc_hd__nand2_4
*I *1576:X O *D sky130_fd_sc_hd__buf_2
*CAP
1 *1557:A1 0.000421635
2 *1555:A2 0
3 *1469:A 0
4 *1553:B 0
5 *1558:A2 0
6 *1452:A 0
7 *1576:X 0.000661589
8 *226:76 0.000638915
9 *226:69 0.00119563
10 *226:56 0.00134028
11 *226:48 0.00379657
12 *226:44 0.00176276
13 *226:27 0.00112338
14 *226:14 0.00177106
15 *226:10 0.00148791
16 *226:8 0.000782443
17 *226:10 *229:14 0.000337509
18 *1544:B *226:14 0.00143001
19 *1544:B *226:27 0.000229751
20 *1558:A1 *226:27 2.34769e-05
21 *1558:A1 *226:44 2.18286e-05
22 *1558:B1 *226:27 0.000207851
23 *45:33 *226:56 0.000417625
24 *45:33 *226:69 0.000454782
25 *53:70 *226:44 0.00018118
26 *53:91 *226:48 4.05745e-05
27 *59:8 *226:69 0.000169674
28 *64:10 *226:44 3.91082e-05
29 *73:12 *226:56 0.000883503
30 *73:12 *226:69 0.000486284
31 *74:26 *226:56 0.000152009
32 *88:24 *226:44 0.000146301
33 *114:10 *226:44 1.05887e-05
34 *125:8 *226:27 1.76149e-05
35 *136:106 *226:56 0
36 *136:116 *226:56 0
37 *137:26 *226:44 5.56279e-05
38 *142:112 *226:69 0.000431269
39 *143:30 *226:69 3.77526e-05
40 *149:91 *226:44 9.28078e-06
41 *151:22 *226:69 0.000452045
42 *158:45 *226:44 5.36496e-06
43 *164:54 *226:27 0.000450326
44 *176:28 *226:44 3.73691e-05
45 *181:107 *1557:A1 0.000421094
46 *181:107 *226:76 3.67392e-05
47 *181:113 *1557:A1 1.13812e-05
48 *181:113 *226:10 0.000348071
49 *181:113 *226:76 0.000427354
50 *188:6 *226:69 2.43944e-05
51 *195:52 *226:27 0.000184125
52 *195:63 *226:69 0.000185866
53 *196:14 *226:27 0.00151677
54 *196:14 *226:44 4.05745e-05
55 *196:24 *226:44 0.000161652
56 *196:24 *226:48 0.00107812
57 *196:36 *226:56 2.70469e-05
58 *196:47 *226:69 0
59 *204:10 *1557:A1 0.000378248
60 *213:26 *226:56 0
61 *219:34 *226:56 0.000304672
*RES
1 *1576:X *226:8 45.7679 
2 *226:8 *226:10 4.72286 
3 *226:10 *226:14 37.0607 
4 *226:14 *1452:A 23 
5 *226:14 *226:27 20.3414 
6 *226:27 *1558:A2 23 
7 *226:27 *226:44 40.4296 
8 *226:44 *226:48 32.0582 
9 *226:48 *226:56 45.0979 
10 *226:56 *1553:B 23 
11 *226:48 *226:69 41.1621 
12 *226:69 *1469:A 23 
13 *226:10 *226:76 5.77929 
14 *226:76 *1555:A2 38 
15 *226:76 *1557:A1 47.7357 
*END

*D_NET *227 0.0364516
*CONN
*I *1475:A I *D sky130_fd_sc_hd__nand2_2
*I *1445:A2 I *D sky130_fd_sc_hd__a21oi_1
*I *1446:A2 I *D sky130_fd_sc_hd__o22a_1
*I *1440:A I *D sky130_fd_sc_hd__nor2_1
*I *1447:A2 I *D sky130_fd_sc_hd__a311o_1
*I *1474:A I *D sky130_fd_sc_hd__or2_2
*I *1577:X O *D sky130_fd_sc_hd__buf_2
*CAP
1 *1475:A 0.000240555
2 *1445:A2 3.99301e-05
3 *1446:A2 0
4 *1440:A 0
5 *1447:A2 0.000737309
6 *1474:A 0
7 *1577:X 0.00125326
8 *227:108 0.00161601
9 *227:104 0.00222962
10 *227:94 0.00267449
11 *227:81 0.00230654
12 *227:66 0.000526145
13 *227:64 0.000679985
14 *227:45 0.00128072
15 *227:39 0.00148827
16 *227:23 0.00168268
17 *227:21 0.000730895
18 *227:8 0.00192631
19 *227:23 *228:31 0.000183295
20 *227:64 *228:31 0.000867934
21 *227:108 *228:64 3.41948e-05
22 *1445:B1 *227:108 0.000367946
23 *1446:B2 *227:81 5.56356e-05
24 *1446:B2 *227:94 0.000191417
25 *1447:B1 *1447:A2 0.000733379
26 *1475:B *1475:A 5.56356e-05
27 *1489:A *1475:A 1.11037e-05
28 *1510:A *227:21 8.9458e-05
29 *1559:B1 *227:81 0.000233332
30 *33:30 *227:81 5.75149e-05
31 *33:30 *227:94 0.000218549
32 *35:12 *227:94 0.000239389
33 *47:22 *227:21 0.000353214
34 *48:8 *227:8 5.70419e-05
35 *48:8 *227:21 4.19743e-05
36 *49:6 *1475:A 1.08287e-05
37 *53:30 *227:21 0.000164251
38 *53:30 *227:39 8.14696e-05
39 *57:10 *227:21 0.000485673
40 *58:16 *227:108 0.00143365
41 *59:31 *227:104 0.000393274
42 *63:33 *227:21 0
43 *71:10 *227:39 0.000188019
44 *82:8 *227:21 0.000434763
45 *91:16 *227:45 0.000418617
46 *97:18 *227:39 1.16767e-05
47 *103:10 *227:45 0.00123232
48 *104:22 *227:45 0.000190108
49 *130:97 *227:21 0.000267464
50 *130:154 *227:108 5.58873e-06
51 *131:44 *227:104 0.000108943
52 *133:40 *227:21 0
53 *133:40 *227:39 0.000224375
54 *134:93 *227:104 0.000135375
55 *136:106 *227:104 0.000421205
56 *140:24 *227:81 1.00084e-05
57 *142:106 *227:104 0.000660842
58 *144:28 *227:23 9.95521e-05
59 *144:28 *227:64 0.000789
60 *144:30 *227:94 2.03764e-06
61 *145:22 *227:64 3.67392e-05
62 *145:22 *227:81 0.000845054
63 *161:10 *227:45 0.000489224
64 *164:23 *227:45 4.41039e-05
65 *170:31 *1475:A 0
66 *174:24 *227:64 2.83449e-05
67 *183:105 *227:104 9.17365e-05
68 *183:176 *227:39 0.000257803
69 *187:26 *227:104 0.000607473
70 *188:128 *227:108 0
71 *190:6 *227:64 0.000426354
72 *199:10 *227:64 2.95526e-05
73 *199:25 *227:64 7.61229e-06
74 *199:27 *227:64 0.000155772
75 *205:12 *1447:A2 1.83408e-05
76 *205:21 *1447:A2 2.19764e-05
77 *205:42 *1445:A2 6.17437e-06
78 *205:78 *227:81 0.000111658
79 *206:56 *227:39 0.000403766
80 *206:62 *227:81 0.000430854
81 *214:6 *227:94 6.08482e-05
82 *215:18 *1475:A 0
83 *217:10 *227:104 0.000662194
84 *219:26 *227:21 1.22906e-05
85 *221:8 *227:94 0.000480823
86 *222:31 *227:39 6.08617e-05
87 *225:24 *227:21 0.000189272
*RES
1 *1577:X *227:8 43.5279 
2 *227:8 *1474:A 23 
3 *227:8 *227:21 49.4921 
4 *227:21 *227:23 2.05071 
5 *227:23 *227:39 46.7371 
6 *227:39 *227:45 48.1043 
7 *227:45 *1447:A2 33.1707 
8 *227:23 *227:64 35.6729 
9 *227:64 *227:66 15 
10 *227:66 *1440:A 23 
11 *227:66 *227:81 43.6093 
12 *227:81 *1446:A2 23 
13 *227:81 *227:94 39.6086 
14 *227:94 *227:104 41.1207 
15 *227:104 *227:108 46.1336 
16 *227:108 *1445:A2 38.6214 
17 *227:108 *1475:A 42.3293 
*END

*D_NET *228 0.0386667
*CONN
*I *1499:B I *D sky130_fd_sc_hd__nor2_1
*I *1485:A I *D sky130_fd_sc_hd__nor2_1
*I *1503:A1 I *D sky130_fd_sc_hd__o211ai_2
*I *1500:B I *D sky130_fd_sc_hd__nand2_1
*I *1484:A I *D sky130_fd_sc_hd__and2_4
*I *1578:X O *D sky130_fd_sc_hd__buf_2
*CAP
1 *1499:B 0.000251402
2 *1485:A 0.000192897
3 *1503:A1 0
4 *1500:B 0.000217901
5 *1484:A 0
6 *1578:X 0.000216636
7 *228:84 0.000990146
8 *228:78 0.00216557
9 *228:74 0.00136033
10 *228:66 0.0003778
11 *228:64 0.00146337
12 *228:51 0.00280474
13 *228:43 0.00340135
14 *228:31 0.00403997
15 *228:27 0.00208641
16 *228:16 0.000971224
17 *228:12 0.00121558
18 *228:8 0.000533907
19 *228:16 *229:14 0
20 *228:27 *229:14 0
21 *1445:B1 *228:74 1.50365e-05
22 *33:26 *228:43 0.000142717
23 *35:41 *228:43 4.2766e-05
24 *49:18 *228:84 8.94552e-05
25 *56:73 *1485:A 0.000429862
26 *56:73 *228:74 0.000144494
27 *58:16 *228:64 0.00230889
28 *72:8 *1499:B 1.32314e-05
29 *87:8 *1485:A 0.0004423
30 *114:10 *228:84 0.00116954
31 *131:44 *1500:B 0
32 *131:44 *228:64 0
33 *134:107 *1500:B 0.00019257
34 *134:107 *228:64 0.000177492
35 *144:28 *228:31 3.78992e-05
36 *147:25 *228:78 0.000564834
37 *151:20 *228:51 0.000482992
38 *164:54 *228:43 0.000315273
39 *165:16 *228:78 0.00160121
40 *166:6 *228:43 1.73155e-05
41 *166:16 *228:78 0.00122847
42 *168:30 *228:43 0.000272248
43 *170:16 *228:64 0
44 *170:31 *228:64 0
45 *170:31 *228:74 8.16253e-05
46 *176:10 *228:84 0.0015795
47 *183:53 *228:84 0.00044068
48 *183:113 *228:64 6.12199e-05
49 *183:162 *228:51 0.000282367
50 *183:168 *228:43 0.000246247
51 *183:168 *228:51 0.000951036
52 *184:14 *228:43 0.000306147
53 *187:26 *228:64 0
54 *188:16 *228:64 2.37688e-05
55 *191:10 *228:8 8.68472e-05
56 *191:10 *228:16 0
57 *194:39 *228:78 0.000178517
58 *196:114 *228:84 2.04774e-05
59 *201:84 *228:84 0.000269692
60 *206:43 *1499:B 6.29487e-05
61 *212:22 *228:84 0.000129592
62 *215:14 *228:84 2.93747e-05
63 *225:10 *228:31 0.000736687
64 *225:64 *228:31 0.000116748
65 *227:23 *228:31 0.000183295
66 *227:64 *228:31 0.000867934
67 *227:108 *228:64 3.41948e-05
*RES
1 *1578:X *228:8 42.7229 
2 *228:8 *228:12 19.9093 
3 *228:12 *228:16 26.7657 
4 *228:16 *1484:A 38 
5 *228:16 *228:27 21.1314 
6 *228:27 *228:31 46.1129 
7 *228:31 *228:43 45.7814 
8 *228:43 *228:51 37.1021 
9 *228:51 *1500:B 42.6607 
10 *228:51 *228:64 35.0071 
11 *228:64 *228:66 15 
12 *228:66 *228:74 33.8321 
13 *228:74 *228:78 45.16 
14 *228:78 *228:84 43.9379 
15 *228:84 *1503:A1 23 
16 *228:66 *1485:A 29.3593 
17 *228:12 *1499:B 27.93 
*END

*D_NET *229 0.0573268
*CONN
*I *1514:A1 I *D sky130_fd_sc_hd__o221a_1
*I *1506:B I *D sky130_fd_sc_hd__xnor2_4
*I *1512:A2 I *D sky130_fd_sc_hd__o21a_1
*I *1513:A2 I *D sky130_fd_sc_hd__a31oi_2
*I *1579:X O *D sky130_fd_sc_hd__buf_4
*CAP
1 *1514:A1 0
2 *1506:B 0
3 *1512:A2 0
4 *1513:A2 1.12761e-05
5 *1579:X 0.000436179
6 *229:91 0.00631331
7 *229:74 0.000703263
8 *229:59 0.00307614
9 *229:47 0.0075527
10 *229:20 0.00708511
11 *229:14 0.0109275
12 *229:8 0.00174983
13 *1450:A1 *229:59 6.10551e-06
14 *1514:A2 *229:91 2.11157e-05
15 *1543:A *229:14 0
16 *32:26 *229:91 0.000105138
17 *39:20 *1513:A2 0
18 *41:38 *229:59 0
19 *41:38 *229:74 0
20 *50:29 *229:91 0
21 *62:20 *229:91 0
22 *77:24 *229:91 0.000271995
23 *78:10 *229:74 0
24 *81:20 *229:91 0.00189127
25 *81:32 *229:47 0
26 *84:26 *229:59 0.00459054
27 *85:22 *229:91 0.000213884
28 *88:24 *229:91 0.00113713
29 *93:22 *229:14 0
30 *93:22 *229:91 0
31 *109:20 *229:14 0
32 *111:24 *229:47 0.000918988
33 *120:35 *229:47 0.000161352
34 *137:171 *229:74 0
35 *148:30 *1513:A2 2.33476e-05
36 *148:30 *229:20 0.000142841
37 *149:48 *229:74 0.000155763
38 *162:27 *229:47 0.000166397
39 *167:64 *229:47 0.000152636
40 *169:45 *229:91 0.000337732
41 *174:22 *229:91 0
42 *181:87 *229:20 0.000135375
43 *181:107 *229:20 0.000306294
44 *181:113 *229:14 4.10102e-05
45 *188:18 *229:91 0
46 *204:10 *229:20 0.000512813
47 *207:21 *229:47 0.000514628
48 *207:31 *229:59 0.00016906
49 *207:31 *229:74 0.000813278
50 *211:24 *229:91 3.27752e-05
51 *219:22 *229:20 0.00319288
52 *219:22 *229:47 0.00283782
53 *224:41 *229:59 5.58873e-06
54 *225:97 *229:74 0.000276209
55 *226:10 *229:14 0.000337509
56 *228:16 *229:14 0
57 *228:27 *229:14 0
*RES
1 *1579:X *229:8 44.815 
2 *229:8 *229:14 32.7179 
3 *229:14 *229:20 23.7989 
4 *229:20 *1513:A2 46.3211 
5 *229:20 *229:47 36.4133 
6 *229:47 *229:59 43.4411 
7 *229:59 *1512:A2 23 
8 *229:47 *229:74 32.2446 
9 *229:74 *1506:B 23 
10 *229:14 *229:91 37.7497 
11 *229:91 *1514:A1 23 
*END

*D_NET *230 0.0365747
*CONN
*I *1398:A I *D sky130_fd_sc_hd__buf_4
*I *1448:A I *D sky130_fd_sc_hd__or2_4
*I *1409:A I *D sky130_fd_sc_hd__and4_1
*I *1400:A I *D sky130_fd_sc_hd__and4_2
*I *1580:X O *D sky130_fd_sc_hd__clkbuf_2
*CAP
1 *1398:A 0.00027749
2 *1448:A 2.44744e-05
3 *1409:A 0
4 *1400:A 4.49871e-05
5 *1580:X 0.00103038
6 *230:58 0.00137684
7 *230:54 0.00327992
8 *230:41 0.00361843
9 *230:20 0.0018767
10 *230:18 0.00235344
11 *230:10 0.0029199
12 *230:6 0.00146018
13 *1463:A *230:54 0.000595973
14 *1480:A *1400:A 6.17437e-06
15 *1480:C *230:20 0.000357144
16 *1517:B *1448:A 9.84794e-05
17 *1549:A1 *230:6 5.3304e-05
18 *36:16 *1398:A 2.69859e-05
19 *36:16 *230:54 0.00014847
20 *37:10 *230:54 0.000144494
21 *40:14 *230:10 7.61824e-05
22 *40:14 *230:20 2.55642e-05
23 *40:20 *230:20 0.00201982
24 *44:16 *230:54 0.000312772
25 *52:24 *230:20 0.00010524
26 *52:34 *230:20 3.83059e-05
27 *53:24 *230:10 0.000670541
28 *53:24 *230:20 0.000134658
29 *53:24 *230:41 1.03597e-05
30 *53:38 *230:20 5.13998e-05
31 *53:107 *230:10 0.00021432
32 *53:126 *230:10 3.46013e-05
33 *69:46 *230:41 2.11066e-05
34 *78:22 *230:58 0.000112947
35 *109:18 *230:18 4.96207e-05
36 *121:8 *230:6 5.42331e-05
37 *128:8 *230:10 0.000225139
38 *128:8 *230:18 0.00123289
39 *128:8 *230:20 0.0041252
40 *130:97 *230:20 0
41 *133:18 *230:10 9.59267e-05
42 *133:20 *230:10 3.69517e-05
43 *133:20 *230:18 0.00123781
44 *142:14 *1398:A 5.75988e-05
45 *149:63 *230:58 0
46 *149:67 *230:58 0
47 *153:8 *230:41 4.05745e-05
48 *155:32 *230:18 2.81066e-05
49 *167:34 *230:20 0.000115828
50 *167:64 *230:18 0.000191591
51 *172:12 *230:58 4.34173e-05
52 *181:28 *230:54 2.81066e-05
53 *181:40 *230:58 0.000591608
54 *185:46 *230:54 2.64616e-05
55 *186:8 *230:54 9.88498e-05
56 *186:63 *230:6 0.000365188
57 *186:71 *230:6 0.000226187
58 *192:20 *230:58 9.20311e-06
59 *192:28 *230:58 0.000319442
60 *194:18 *230:58 0.000576209
61 *197:10 *230:58 0
62 *201:71 *230:41 2.31687e-05
63 *201:80 *230:41 6.06956e-05
64 *201:80 *230:54 0.000809148
65 *209:106 *230:54 7.15126e-05
66 *211:64 *230:41 0.000162154
67 *211:64 *230:54 8.4763e-05
68 *222:85 *230:41 0.00040881
69 *224:31 *230:58 0.000567939
70 *225:64 *230:20 0.000374137
71 *225:84 *230:10 0.000660501
72 *225:107 *1448:A 5.41288e-05
*RES
1 *1580:X *230:6 43.155 
2 *230:6 *230:10 29.4068 
3 *230:10 *230:18 47.9696 
4 *230:18 *230:20 56.4879 
5 *230:20 *1400:A 38.6214 
6 *230:10 *230:41 40.4634 
7 *230:41 *1409:A 23 
8 *230:41 *230:54 27.84 
9 *230:54 *230:58 45.0771 
10 *230:58 *1448:A 39.0979 
11 *230:54 *1398:A 26.8529 
*END
