*SPEF "ieee 1481-1999"
*DESIGN "alu"
*DATE "16:21:37 Sunday May 04, 2025"
*VENDOR "The OpenROAD Project"
*PROGRAM "OpenROAD"
*VERSION "b16bda7e82721d10566ff7e2b68f1ff0be9f9e38"
*DESIGN_FLOW "NAME_SCOPE LOCAL" "PIN_CAP NONE"
*DIVIDER /
*DELIMITER :
*BUS_DELIMITER []
*T_UNIT 1 NS
*C_UNIT 1 PF
*R_UNIT 1 OHM
*L_UNIT 1 HENRY

*NAME_MAP
*3 in1[0]
*4 in1[1]
*5 in1[2]
*6 in1[3]
*7 in1[4]
*8 in1[5]
*9 in1[6]
*10 in1[7]
*11 in2[0]
*12 in2[1]
*13 in2[2]
*14 in2[3]
*15 in2[4]
*16 in2[5]
*17 in2[6]
*18 in2[7]
*19 op[0]
*20 op[1]
*21 op[2]
*22 out[0]
*23 out[1]
*24 out[2]
*25 out[3]
*26 out[4]
*27 out[5]
*28 out[6]
*29 out[7]
*30 _000_
*31 _001_
*32 _002_
*33 _003_
*34 _004_
*35 _005_
*36 _006_
*37 _007_
*38 _008_
*39 _009_
*40 _010_
*41 _011_
*42 _012_
*43 _013_
*44 _014_
*45 _015_
*46 _016_
*47 _017_
*48 _018_
*49 _019_
*50 _020_
*51 _021_
*52 _022_
*53 _023_
*54 _024_
*55 _025_
*56 _026_
*57 _027_
*58 _028_
*59 _029_
*60 _030_
*61 _031_
*62 _032_
*63 _033_
*64 _034_
*65 _035_
*66 _036_
*67 _037_
*68 _038_
*69 _039_
*70 _040_
*71 _041_
*72 _042_
*73 _043_
*74 _044_
*75 _045_
*76 _046_
*77 _047_
*78 _048_
*79 _049_
*80 _050_
*81 _051_
*82 _052_
*83 _053_
*84 _054_
*85 _055_
*86 _056_
*87 _057_
*88 _058_
*89 _059_
*90 _060_
*91 _061_
*92 _062_
*93 _063_
*94 _064_
*95 _065_
*96 _066_
*97 _067_
*98 _068_
*99 _069_
*100 _070_
*101 _071_
*102 _072_
*103 _073_
*104 _074_
*105 _075_
*106 _076_
*107 _077_
*108 _078_
*109 _079_
*110 _080_
*111 _081_
*112 _082_
*113 _083_
*114 _084_
*115 _085_
*116 _086_
*117 _087_
*118 _088_
*119 _089_
*120 _090_
*121 _091_
*122 _092_
*123 _093_
*124 _094_
*125 _095_
*126 _096_
*127 _097_
*128 _098_
*129 _099_
*130 _100_
*131 _101_
*132 _102_
*133 _103_
*134 _104_
*135 _105_
*136 _106_
*137 _107_
*138 _108_
*139 _109_
*140 _110_
*141 _111_
*142 _112_
*143 _113_
*144 _114_
*145 _115_
*146 _116_
*147 _117_
*148 _118_
*149 _119_
*150 _120_
*151 _121_
*152 _122_
*153 _123_
*154 _124_
*155 _125_
*156 _126_
*157 _127_
*158 _128_
*159 _129_
*160 _130_
*161 _131_
*162 _132_
*163 _133_
*164 _134_
*165 _135_
*166 _136_
*167 _137_
*168 _138_
*169 _139_
*170 _140_
*171 _141_
*172 _142_
*173 _143_
*174 _144_
*175 _145_
*176 _146_
*177 _147_
*178 _148_
*179 _149_
*180 _150_
*181 _151_
*182 _152_
*183 _153_
*184 _154_
*185 _155_
*186 _156_
*187 _157_
*188 _158_
*189 _159_
*190 _160_
*191 _161_
*192 _162_
*193 _163_
*194 _164_
*195 _165_
*196 _166_
*197 _167_
*198 _168_
*199 _169_
*200 net1
*201 net10
*202 net11
*203 net12
*204 net13
*205 net14
*206 net15
*207 net16
*208 net17
*209 net18
*210 net19
*211 net2
*212 net20
*213 net21
*214 net22
*215 net23
*216 net24
*217 net25
*218 net26
*219 net27
*220 net28
*221 net29
*222 net3
*223 net30
*224 net31
*225 net4
*226 net5
*227 net6
*228 net7
*229 net8
*230 net9
*231 FILLER_0_0_109
*232 FILLER_0_0_113
*233 FILLER_0_0_125
*234 FILLER_0_0_137
*235 FILLER_0_0_141
*236 FILLER_0_0_15
*237 FILLER_0_0_153
*238 FILLER_0_0_165
*239 FILLER_0_0_169
*240 FILLER_0_0_181
*241 FILLER_0_0_189
*242 FILLER_0_0_27
*243 FILLER_0_0_29
*244 FILLER_0_0_3
*245 FILLER_0_0_41
*246 FILLER_0_0_53
*247 FILLER_0_0_57
*248 FILLER_0_0_69
*249 FILLER_0_0_81
*250 FILLER_0_0_85
*251 FILLER_0_0_97
*252 FILLER_0_10_108
*253 FILLER_0_10_117
*254 FILLER_0_10_129
*255 FILLER_0_10_137
*256 FILLER_0_10_141
*257 FILLER_0_10_15
*258 FILLER_0_10_158
*259 FILLER_0_10_166
*260 FILLER_0_10_174
*261 FILLER_0_10_184
*262 FILLER_0_10_27
*263 FILLER_0_10_29
*264 FILLER_0_10_3
*265 FILLER_0_10_41
*266 FILLER_0_10_53
*267 FILLER_0_10_74
*268 FILLER_0_10_82
*269 FILLER_0_10_92
*270 FILLER_0_11_110
*271 FILLER_0_11_128
*272 FILLER_0_11_143
*273 FILLER_0_11_151
*274 FILLER_0_11_163
*275 FILLER_0_11_167
*276 FILLER_0_11_169
*277 FILLER_0_11_181
*278 FILLER_0_11_189
*279 FILLER_0_11_19
*280 FILLER_0_11_31
*281 FILLER_0_11_43
*282 FILLER_0_11_55
*283 FILLER_0_11_57
*284 FILLER_0_11_69
*285 FILLER_0_11_7
*286 FILLER_0_11_81
*287 FILLER_0_11_93
*288 FILLER_0_12_110
*289 FILLER_0_12_135
*290 FILLER_0_12_139
*291 FILLER_0_12_15
*292 FILLER_0_12_163
*293 FILLER_0_12_169
*294 FILLER_0_12_173
*295 FILLER_0_12_185
*296 FILLER_0_12_189
*297 FILLER_0_12_25
*298 FILLER_0_12_29
*299 FILLER_0_12_3
*300 FILLER_0_12_41
*301 FILLER_0_12_49
*302 FILLER_0_12_57
*303 FILLER_0_12_69
*304 FILLER_0_12_81
*305 FILLER_0_12_85
*306 FILLER_0_12_93
*307 FILLER_0_12_98
*308 FILLER_0_13_104
*309 FILLER_0_13_113
*310 FILLER_0_13_125
*311 FILLER_0_13_137
*312 FILLER_0_13_149
*313 FILLER_0_13_165
*314 FILLER_0_13_169
*315 FILLER_0_13_181
*316 FILLER_0_13_189
*317 FILLER_0_13_19
*318 FILLER_0_13_31
*319 FILLER_0_13_43
*320 FILLER_0_13_55
*321 FILLER_0_13_57
*322 FILLER_0_13_69
*323 FILLER_0_13_7
*324 FILLER_0_13_81
*325 FILLER_0_13_92
*326 FILLER_0_14_109
*327 FILLER_0_14_118
*328 FILLER_0_14_130
*329 FILLER_0_14_138
*330 FILLER_0_14_141
*331 FILLER_0_14_15
*332 FILLER_0_14_153
*333 FILLER_0_14_166
*334 FILLER_0_14_178
*335 FILLER_0_14_27
*336 FILLER_0_14_3
*337 FILLER_0_14_36
*338 FILLER_0_14_48
*339 FILLER_0_14_60
*340 FILLER_0_14_72
*341 FILLER_0_14_85
*342 FILLER_0_14_97
*343 FILLER_0_15_104
*344 FILLER_0_15_113
*345 FILLER_0_15_125
*346 FILLER_0_15_137
*347 FILLER_0_15_149
*348 FILLER_0_15_15
*349 FILLER_0_15_161
*350 FILLER_0_15_167
*351 FILLER_0_15_175
*352 FILLER_0_15_181
*353 FILLER_0_15_189
*354 FILLER_0_15_27
*355 FILLER_0_15_3
*356 FILLER_0_15_39
*357 FILLER_0_15_51
*358 FILLER_0_15_55
*359 FILLER_0_15_57
*360 FILLER_0_15_69
*361 FILLER_0_15_81
*362 FILLER_0_15_89
*363 FILLER_0_16_107
*364 FILLER_0_16_119
*365 FILLER_0_16_131
*366 FILLER_0_16_139
*367 FILLER_0_16_141
*368 FILLER_0_16_153
*369 FILLER_0_16_165
*370 FILLER_0_16_177
*371 FILLER_0_16_189
*372 FILLER_0_16_19
*373 FILLER_0_16_27
*374 FILLER_0_16_29
*375 FILLER_0_16_41
*376 FILLER_0_16_53
*377 FILLER_0_16_65
*378 FILLER_0_16_7
*379 FILLER_0_16_77
*380 FILLER_0_16_83
*381 FILLER_0_17_108
*382 FILLER_0_17_113
*383 FILLER_0_17_125
*384 FILLER_0_17_137
*385 FILLER_0_17_15
*386 FILLER_0_17_175
*387 FILLER_0_17_187
*388 FILLER_0_17_27
*389 FILLER_0_17_3
*390 FILLER_0_17_34
*391 FILLER_0_17_42
*392 FILLER_0_17_49
*393 FILLER_0_17_55
*394 FILLER_0_17_57
*395 FILLER_0_17_69
*396 FILLER_0_17_81
*397 FILLER_0_17_96
*398 FILLER_0_18_109
*399 FILLER_0_18_121
*400 FILLER_0_18_133
*401 FILLER_0_18_139
*402 FILLER_0_18_141
*403 FILLER_0_18_153
*404 FILLER_0_18_165
*405 FILLER_0_18_177
*406 FILLER_0_18_189
*407 FILLER_0_18_25
*408 FILLER_0_18_35
*409 FILLER_0_18_47
*410 FILLER_0_18_59
*411 FILLER_0_18_71
*412 FILLER_0_18_83
*413 FILLER_0_18_85
*414 FILLER_0_18_97
*415 FILLER_0_19_108
*416 FILLER_0_19_113
*417 FILLER_0_19_125
*418 FILLER_0_19_142
*419 FILLER_0_19_15
*420 FILLER_0_19_151
*421 FILLER_0_19_155
*422 FILLER_0_19_161
*423 FILLER_0_19_167
*424 FILLER_0_19_175
*425 FILLER_0_19_187
*426 FILLER_0_19_27
*427 FILLER_0_19_3
*428 FILLER_0_19_39
*429 FILLER_0_19_51
*430 FILLER_0_19_55
*431 FILLER_0_19_57
*432 FILLER_0_19_69
*433 FILLER_0_19_77
*434 FILLER_0_19_84
*435 FILLER_0_19_96
*436 FILLER_0_1_105
*437 FILLER_0_1_111
*438 FILLER_0_1_113
*439 FILLER_0_1_121
*440 FILLER_0_1_125
*441 FILLER_0_1_137
*442 FILLER_0_1_143
*443 FILLER_0_1_149
*444 FILLER_0_1_161
*445 FILLER_0_1_167
*446 FILLER_0_1_169
*447 FILLER_0_1_21
*448 FILLER_0_1_41
*449 FILLER_0_1_53
*450 FILLER_0_1_57
*451 FILLER_0_1_69
*452 FILLER_0_1_81
*453 FILLER_0_1_9
*454 FILLER_0_1_93
*455 FILLER_0_20_109
*456 FILLER_0_20_121
*457 FILLER_0_20_133
*458 FILLER_0_20_139
*459 FILLER_0_20_141
*460 FILLER_0_20_15
*461 FILLER_0_20_153
*462 FILLER_0_20_165
*463 FILLER_0_20_173
*464 FILLER_0_20_180
*465 FILLER_0_20_25
*466 FILLER_0_20_29
*467 FILLER_0_20_3
*468 FILLER_0_20_41
*469 FILLER_0_20_53
*470 FILLER_0_20_65
*471 FILLER_0_20_77
*472 FILLER_0_20_83
*473 FILLER_0_20_85
*474 FILLER_0_20_97
*475 FILLER_0_21_105
*476 FILLER_0_21_111
*477 FILLER_0_21_113
*478 FILLER_0_21_123
*479 FILLER_0_21_128
*480 FILLER_0_21_14
*481 FILLER_0_21_140
*482 FILLER_0_21_152
*483 FILLER_0_21_164
*484 FILLER_0_21_169
*485 FILLER_0_21_181
*486 FILLER_0_21_189
*487 FILLER_0_21_26
*488 FILLER_0_21_38
*489 FILLER_0_21_50
*490 FILLER_0_21_57
*491 FILLER_0_21_69
*492 FILLER_0_21_81
*493 FILLER_0_21_93
*494 FILLER_0_22_109
*495 FILLER_0_22_121
*496 FILLER_0_22_133
*497 FILLER_0_22_139
*498 FILLER_0_22_141
*499 FILLER_0_22_15
*500 FILLER_0_22_153
*501 FILLER_0_22_165
*502 FILLER_0_22_169
*503 FILLER_0_22_173
*504 FILLER_0_22_185
*505 FILLER_0_22_189
*506 FILLER_0_22_27
*507 FILLER_0_22_29
*508 FILLER_0_22_3
*509 FILLER_0_22_41
*510 FILLER_0_22_49
*511 FILLER_0_22_61
*512 FILLER_0_22_73
*513 FILLER_0_22_85
*514 FILLER_0_22_97
*515 FILLER_0_23_101
*516 FILLER_0_23_109
*517 FILLER_0_23_113
*518 FILLER_0_23_125
*519 FILLER_0_23_137
*520 FILLER_0_23_160
*521 FILLER_0_23_169
*522 FILLER_0_23_181
*523 FILLER_0_23_189
*524 FILLER_0_23_19
*525 FILLER_0_23_31
*526 FILLER_0_23_57
*527 FILLER_0_23_69
*528 FILLER_0_23_7
*529 FILLER_0_23_77
*530 FILLER_0_23_89
*531 FILLER_0_24_109
*532 FILLER_0_24_118
*533 FILLER_0_24_130
*534 FILLER_0_24_138
*535 FILLER_0_24_141
*536 FILLER_0_24_15
*537 FILLER_0_24_153
*538 FILLER_0_24_165
*539 FILLER_0_24_177
*540 FILLER_0_24_185
*541 FILLER_0_24_189
*542 FILLER_0_24_27
*543 FILLER_0_24_29
*544 FILLER_0_24_3
*545 FILLER_0_24_41
*546 FILLER_0_24_53
*547 FILLER_0_24_65
*548 FILLER_0_24_77
*549 FILLER_0_24_83
*550 FILLER_0_24_85
*551 FILLER_0_24_97
*552 FILLER_0_25_105
*553 FILLER_0_25_111
*554 FILLER_0_25_113
*555 FILLER_0_25_121
*556 FILLER_0_25_131
*557 FILLER_0_25_143
*558 FILLER_0_25_15
*559 FILLER_0_25_155
*560 FILLER_0_25_167
*561 FILLER_0_25_169
*562 FILLER_0_25_177
*563 FILLER_0_25_189
*564 FILLER_0_25_27
*565 FILLER_0_25_3
*566 FILLER_0_25_39
*567 FILLER_0_25_51
*568 FILLER_0_25_55
*569 FILLER_0_25_57
*570 FILLER_0_25_69
*571 FILLER_0_25_81
*572 FILLER_0_25_93
*573 FILLER_0_26_109
*574 FILLER_0_26_121
*575 FILLER_0_26_133
*576 FILLER_0_26_139
*577 FILLER_0_26_141
*578 FILLER_0_26_153
*579 FILLER_0_26_165
*580 FILLER_0_26_19
*581 FILLER_0_26_27
*582 FILLER_0_26_29
*583 FILLER_0_26_41
*584 FILLER_0_26_69
*585 FILLER_0_26_7
*586 FILLER_0_26_81
*587 FILLER_0_26_85
*588 FILLER_0_26_97
*589 FILLER_0_27_107
*590 FILLER_0_27_111
*591 FILLER_0_27_113
*592 FILLER_0_27_125
*593 FILLER_0_27_137
*594 FILLER_0_27_149
*595 FILLER_0_27_15
*596 FILLER_0_27_161
*597 FILLER_0_27_167
*598 FILLER_0_27_169
*599 FILLER_0_27_181
*600 FILLER_0_27_185
*601 FILLER_0_27_27
*602 FILLER_0_27_3
*603 FILLER_0_27_39
*604 FILLER_0_27_51
*605 FILLER_0_27_55
*606 FILLER_0_27_57
*607 FILLER_0_27_71
*608 FILLER_0_27_83
*609 FILLER_0_27_95
*610 FILLER_0_28_104
*611 FILLER_0_28_116
*612 FILLER_0_28_128
*613 FILLER_0_28_139
*614 FILLER_0_28_141
*615 FILLER_0_28_153
*616 FILLER_0_28_16
*617 FILLER_0_28_165
*618 FILLER_0_28_176
*619 FILLER_0_28_188
*620 FILLER_0_28_20
*621 FILLER_0_28_29
*622 FILLER_0_28_41
*623 FILLER_0_28_53
*624 FILLER_0_28_65
*625 FILLER_0_28_77
*626 FILLER_0_28_83
*627 FILLER_0_28_92
*628 FILLER_0_29_110
*629 FILLER_0_29_113
*630 FILLER_0_29_125
*631 FILLER_0_29_134
*632 FILLER_0_29_146
*633 FILLER_0_29_15
*634 FILLER_0_29_158
*635 FILLER_0_29_166
*636 FILLER_0_29_169
*637 FILLER_0_29_175
*638 FILLER_0_29_180
*639 FILLER_0_29_188
*640 FILLER_0_29_27
*641 FILLER_0_29_3
*642 FILLER_0_29_35
*643 FILLER_0_29_41
*644 FILLER_0_29_53
*645 FILLER_0_29_57
*646 FILLER_0_29_65
*647 FILLER_0_29_74
*648 FILLER_0_29_86
*649 FILLER_0_29_98
*650 FILLER_0_2_108
*651 FILLER_0_2_120
*652 FILLER_0_2_132
*653 FILLER_0_2_141
*654 FILLER_0_2_15
*655 FILLER_0_2_153
*656 FILLER_0_2_165
*657 FILLER_0_2_177
*658 FILLER_0_2_185
*659 FILLER_0_2_189
*660 FILLER_0_2_29
*661 FILLER_0_2_3
*662 FILLER_0_2_41
*663 FILLER_0_2_53
*664 FILLER_0_2_65
*665 FILLER_0_2_77
*666 FILLER_0_2_83
*667 FILLER_0_2_85
*668 FILLER_0_2_97
*669 FILLER_0_30_109
*670 FILLER_0_30_121
*671 FILLER_0_30_133
*672 FILLER_0_30_139
*673 FILLER_0_30_141
*674 FILLER_0_30_15
*675 FILLER_0_30_153
*676 FILLER_0_30_165
*677 FILLER_0_30_177
*678 FILLER_0_30_187
*679 FILLER_0_30_27
*680 FILLER_0_30_29
*681 FILLER_0_30_3
*682 FILLER_0_30_41
*683 FILLER_0_30_53
*684 FILLER_0_30_78
*685 FILLER_0_30_85
*686 FILLER_0_30_97
*687 FILLER_0_31_105
*688 FILLER_0_31_111
*689 FILLER_0_31_113
*690 FILLER_0_31_125
*691 FILLER_0_31_129
*692 FILLER_0_31_135
*693 FILLER_0_31_143
*694 FILLER_0_31_149
*695 FILLER_0_31_15
*696 FILLER_0_31_157
*697 FILLER_0_31_169
*698 FILLER_0_31_183
*699 FILLER_0_31_189
*700 FILLER_0_31_19
*701 FILLER_0_31_39
*702 FILLER_0_31_51
*703 FILLER_0_31_55
*704 FILLER_0_31_57
*705 FILLER_0_31_69
*706 FILLER_0_31_7
*707 FILLER_0_31_81
*708 FILLER_0_31_93
*709 FILLER_0_32_109
*710 FILLER_0_32_11
*711 FILLER_0_32_121
*712 FILLER_0_32_129
*713 FILLER_0_32_135
*714 FILLER_0_32_139
*715 FILLER_0_32_141
*716 FILLER_0_32_153
*717 FILLER_0_32_165
*718 FILLER_0_32_177
*719 FILLER_0_32_189
*720 FILLER_0_32_19
*721 FILLER_0_32_27
*722 FILLER_0_32_29
*723 FILLER_0_32_3
*724 FILLER_0_32_41
*725 FILLER_0_32_53
*726 FILLER_0_32_65
*727 FILLER_0_32_77
*728 FILLER_0_32_83
*729 FILLER_0_32_85
*730 FILLER_0_32_97
*731 FILLER_0_33_106
*732 FILLER_0_33_120
*733 FILLER_0_33_132
*734 FILLER_0_33_150
*735 FILLER_0_33_160
*736 FILLER_0_33_169
*737 FILLER_0_33_181
*738 FILLER_0_33_185
*739 FILLER_0_33_19
*740 FILLER_0_33_31
*741 FILLER_0_33_43
*742 FILLER_0_33_55
*743 FILLER_0_33_57
*744 FILLER_0_33_7
*745 FILLER_0_33_77
*746 FILLER_0_33_85
*747 FILLER_0_33_94
*748 FILLER_0_34_107
*749 FILLER_0_34_113
*750 FILLER_0_34_124
*751 FILLER_0_34_137
*752 FILLER_0_34_141
*753 FILLER_0_34_153
*754 FILLER_0_34_165
*755 FILLER_0_34_177
*756 FILLER_0_34_189
*757 FILLER_0_34_22
*758 FILLER_0_34_29
*759 FILLER_0_34_3
*760 FILLER_0_34_40
*761 FILLER_0_34_52
*762 FILLER_0_34_64
*763 FILLER_0_34_80
*764 FILLER_0_34_85
*765 FILLER_0_34_95
*766 FILLER_0_35_100
*767 FILLER_0_35_113
*768 FILLER_0_35_125
*769 FILLER_0_35_140
*770 FILLER_0_35_144
*771 FILLER_0_35_15
*772 FILLER_0_35_152
*773 FILLER_0_35_164
*774 FILLER_0_35_169
*775 FILLER_0_35_181
*776 FILLER_0_35_189
*777 FILLER_0_35_27
*778 FILLER_0_35_3
*779 FILLER_0_35_35
*780 FILLER_0_35_43
*781 FILLER_0_35_55
*782 FILLER_0_35_64
*783 FILLER_0_35_76
*784 FILLER_0_35_88
*785 FILLER_0_36_105
*786 FILLER_0_36_118
*787 FILLER_0_36_130
*788 FILLER_0_36_138
*789 FILLER_0_36_141
*790 FILLER_0_36_15
*791 FILLER_0_36_153
*792 FILLER_0_36_165
*793 FILLER_0_36_178
*794 FILLER_0_36_24
*795 FILLER_0_36_29
*796 FILLER_0_36_41
*797 FILLER_0_36_53
*798 FILLER_0_36_61
*799 FILLER_0_36_7
*800 FILLER_0_36_75
*801 FILLER_0_36_83
*802 FILLER_0_36_85
*803 FILLER_0_36_97
*804 FILLER_0_37_107
*805 FILLER_0_37_111
*806 FILLER_0_37_113
*807 FILLER_0_37_125
*808 FILLER_0_37_137
*809 FILLER_0_37_149
*810 FILLER_0_37_15
*811 FILLER_0_37_161
*812 FILLER_0_37_167
*813 FILLER_0_37_169
*814 FILLER_0_37_181
*815 FILLER_0_37_189
*816 FILLER_0_37_27
*817 FILLER_0_37_3
*818 FILLER_0_37_35
*819 FILLER_0_37_50
*820 FILLER_0_37_57
*821 FILLER_0_37_69
*822 FILLER_0_37_81
*823 FILLER_0_37_85
*824 FILLER_0_37_95
*825 FILLER_0_38_106
*826 FILLER_0_38_114
*827 FILLER_0_38_121
*828 FILLER_0_38_133
*829 FILLER_0_38_139
*830 FILLER_0_38_141
*831 FILLER_0_38_153
*832 FILLER_0_38_165
*833 FILLER_0_38_177
*834 FILLER_0_38_19
*835 FILLER_0_38_27
*836 FILLER_0_38_29
*837 FILLER_0_38_41
*838 FILLER_0_38_53
*839 FILLER_0_38_61
*840 FILLER_0_38_7
*841 FILLER_0_38_71
*842 FILLER_0_38_83
*843 FILLER_0_38_94
*844 FILLER_0_39_103
*845 FILLER_0_39_111
*846 FILLER_0_39_113
*847 FILLER_0_39_125
*848 FILLER_0_39_137
*849 FILLER_0_39_149
*850 FILLER_0_39_15
*851 FILLER_0_39_161
*852 FILLER_0_39_167
*853 FILLER_0_39_169
*854 FILLER_0_39_181
*855 FILLER_0_39_189
*856 FILLER_0_39_19
*857 FILLER_0_39_3
*858 FILLER_0_39_34
*859 FILLER_0_39_48
*860 FILLER_0_39_57
*861 FILLER_0_39_69
*862 FILLER_0_39_81
*863 FILLER_0_39_93
*864 FILLER_0_3_108
*865 FILLER_0_3_113
*866 FILLER_0_3_126
*867 FILLER_0_3_135
*868 FILLER_0_3_147
*869 FILLER_0_3_159
*870 FILLER_0_3_167
*871 FILLER_0_3_169
*872 FILLER_0_3_177
*873 FILLER_0_3_186
*874 FILLER_0_3_42
*875 FILLER_0_3_54
*876 FILLER_0_3_57
*877 FILLER_0_3_7
*878 FILLER_0_3_72
*879 FILLER_0_3_84
*880 FILLER_0_3_96
*881 FILLER_0_40_106
*882 FILLER_0_40_118
*883 FILLER_0_40_130
*884 FILLER_0_40_134
*885 FILLER_0_40_138
*886 FILLER_0_40_141
*887 FILLER_0_40_15
*888 FILLER_0_40_153
*889 FILLER_0_40_165
*890 FILLER_0_40_179
*891 FILLER_0_40_185
*892 FILLER_0_40_27
*893 FILLER_0_40_29
*894 FILLER_0_40_3
*895 FILLER_0_40_41
*896 FILLER_0_40_53
*897 FILLER_0_40_65
*898 FILLER_0_40_77
*899 FILLER_0_40_83
*900 FILLER_0_40_85
*901 FILLER_0_40_97
*902 FILLER_0_41_105
*903 FILLER_0_41_111
*904 FILLER_0_41_113
*905 FILLER_0_41_125
*906 FILLER_0_41_137
*907 FILLER_0_41_149
*908 FILLER_0_41_161
*909 FILLER_0_41_167
*910 FILLER_0_41_169
*911 FILLER_0_41_181
*912 FILLER_0_41_189
*913 FILLER_0_41_21
*914 FILLER_0_41_33
*915 FILLER_0_41_45
*916 FILLER_0_41_54
*917 FILLER_0_41_57
*918 FILLER_0_41_69
*919 FILLER_0_41_81
*920 FILLER_0_41_9
*921 FILLER_0_41_93
*922 FILLER_0_42_109
*923 FILLER_0_42_121
*924 FILLER_0_42_133
*925 FILLER_0_42_139
*926 FILLER_0_42_146
*927 FILLER_0_42_15
*928 FILLER_0_42_158
*929 FILLER_0_42_170
*930 FILLER_0_42_174
*931 FILLER_0_42_183
*932 FILLER_0_42_189
*933 FILLER_0_42_27
*934 FILLER_0_42_3
*935 FILLER_0_42_43
*936 FILLER_0_42_55
*937 FILLER_0_42_67
*938 FILLER_0_42_79
*939 FILLER_0_42_83
*940 FILLER_0_42_85
*941 FILLER_0_42_97
*942 FILLER_0_43_100
*943 FILLER_0_43_113
*944 FILLER_0_43_125
*945 FILLER_0_43_137
*946 FILLER_0_43_149
*947 FILLER_0_43_161
*948 FILLER_0_43_167
*949 FILLER_0_43_169
*950 FILLER_0_43_177
*951 FILLER_0_43_182
*952 FILLER_0_43_21
*953 FILLER_0_43_33
*954 FILLER_0_43_45
*955 FILLER_0_43_53
*956 FILLER_0_43_57
*957 FILLER_0_43_69
*958 FILLER_0_43_76
*959 FILLER_0_43_88
*960 FILLER_0_43_9
*961 FILLER_0_43_94
*962 FILLER_0_44_110
*963 FILLER_0_44_122
*964 FILLER_0_44_139
*965 FILLER_0_44_141
*966 FILLER_0_44_15
*967 FILLER_0_44_151
*968 FILLER_0_44_163
*969 FILLER_0_44_169
*970 FILLER_0_44_187
*971 FILLER_0_44_27
*972 FILLER_0_44_29
*973 FILLER_0_44_3
*974 FILLER_0_44_41
*975 FILLER_0_44_53
*976 FILLER_0_44_59
*977 FILLER_0_44_72
*978 FILLER_0_44_85
*979 FILLER_0_44_93
*980 FILLER_0_45_105
*981 FILLER_0_45_111
*982 FILLER_0_45_113
*983 FILLER_0_45_125
*984 FILLER_0_45_137
*985 FILLER_0_45_149
*986 FILLER_0_45_15
*987 FILLER_0_45_153
*988 FILLER_0_45_160
*989 FILLER_0_45_169
*990 FILLER_0_45_177
*991 FILLER_0_45_188
*992 FILLER_0_45_23
*993 FILLER_0_45_3
*994 FILLER_0_45_31
*995 FILLER_0_45_43
*996 FILLER_0_45_55
*997 FILLER_0_45_79
*998 FILLER_0_45_85
*999 FILLER_0_45_92
*1000 FILLER_0_45_98
*1001 FILLER_0_46_110
*1002 FILLER_0_46_113
*1003 FILLER_0_46_125
*1004 FILLER_0_46_137
*1005 FILLER_0_46_141
*1006 FILLER_0_46_153
*1007 FILLER_0_46_165
*1008 FILLER_0_46_169
*1009 FILLER_0_46_17
*1010 FILLER_0_46_181
*1011 FILLER_0_46_185
*1012 FILLER_0_46_25
*1013 FILLER_0_46_29
*1014 FILLER_0_46_41
*1015 FILLER_0_46_53
*1016 FILLER_0_46_57
*1017 FILLER_0_46_69
*1018 FILLER_0_46_7
*1019 FILLER_0_46_81
*1020 FILLER_0_46_85
*1021 FILLER_0_46_98
*1022 FILLER_0_4_109
*1023 FILLER_0_4_121
*1024 FILLER_0_4_133
*1025 FILLER_0_4_139
*1026 FILLER_0_4_141
*1027 FILLER_0_4_15
*1028 FILLER_0_4_153
*1029 FILLER_0_4_165
*1030 FILLER_0_4_177
*1031 FILLER_0_4_189
*1032 FILLER_0_4_23
*1033 FILLER_0_4_29
*1034 FILLER_0_4_3
*1035 FILLER_0_4_41
*1036 FILLER_0_4_53
*1037 FILLER_0_4_65
*1038 FILLER_0_4_73
*1039 FILLER_0_4_81
*1040 FILLER_0_4_85
*1041 FILLER_0_4_97
*1042 FILLER_0_5_105
*1043 FILLER_0_5_111
*1044 FILLER_0_5_113
*1045 FILLER_0_5_125
*1046 FILLER_0_5_137
*1047 FILLER_0_5_15
*1048 FILLER_0_5_150
*1049 FILLER_0_5_158
*1050 FILLER_0_5_166
*1051 FILLER_0_5_175
*1052 FILLER_0_5_187
*1053 FILLER_0_5_21
*1054 FILLER_0_5_25
*1055 FILLER_0_5_3
*1056 FILLER_0_5_37
*1057 FILLER_0_5_45
*1058 FILLER_0_5_51
*1059 FILLER_0_5_55
*1060 FILLER_0_5_57
*1061 FILLER_0_5_69
*1062 FILLER_0_5_81
*1063 FILLER_0_5_93
*1064 FILLER_0_6_109
*1065 FILLER_0_6_117
*1066 FILLER_0_6_124
*1067 FILLER_0_6_136
*1068 FILLER_0_6_141
*1069 FILLER_0_6_153
*1070 FILLER_0_6_165
*1071 FILLER_0_6_177
*1072 FILLER_0_6_189
*1073 FILLER_0_6_19
*1074 FILLER_0_6_27
*1075 FILLER_0_6_29
*1076 FILLER_0_6_41
*1077 FILLER_0_6_49
*1078 FILLER_0_6_61
*1079 FILLER_0_6_7
*1080 FILLER_0_6_73
*1081 FILLER_0_6_81
*1082 FILLER_0_6_85
*1083 FILLER_0_6_97
*1084 FILLER_0_7_106
*1085 FILLER_0_7_113
*1086 FILLER_0_7_125
*1087 FILLER_0_7_137
*1088 FILLER_0_7_149
*1089 FILLER_0_7_15
*1090 FILLER_0_7_161
*1091 FILLER_0_7_167
*1092 FILLER_0_7_169
*1093 FILLER_0_7_27
*1094 FILLER_0_7_3
*1095 FILLER_0_7_39
*1096 FILLER_0_7_55
*1097 FILLER_0_7_57
*1098 FILLER_0_7_67
*1099 FILLER_0_7_79
*1100 FILLER_0_7_87
*1101 FILLER_0_7_94
*1102 FILLER_0_8_109
*1103 FILLER_0_8_121
*1104 FILLER_0_8_136
*1105 FILLER_0_8_141
*1106 FILLER_0_8_153
*1107 FILLER_0_8_165
*1108 FILLER_0_8_177
*1109 FILLER_0_8_189
*1110 FILLER_0_8_19
*1111 FILLER_0_8_27
*1112 FILLER_0_8_29
*1113 FILLER_0_8_41
*1114 FILLER_0_8_53
*1115 FILLER_0_8_65
*1116 FILLER_0_8_7
*1117 FILLER_0_8_74
*1118 FILLER_0_8_82
*1119 FILLER_0_8_85
*1120 FILLER_0_8_97
*1121 FILLER_0_9_101
*1122 FILLER_0_9_111
*1123 FILLER_0_9_113
*1124 FILLER_0_9_125
*1125 FILLER_0_9_137
*1126 FILLER_0_9_149
*1127 FILLER_0_9_16
*1128 FILLER_0_9_161
*1129 FILLER_0_9_167
*1130 FILLER_0_9_169
*1131 FILLER_0_9_173
*1132 FILLER_0_9_181
*1133 FILLER_0_9_189
*1134 FILLER_0_9_28
*1135 FILLER_0_9_3
*1136 FILLER_0_9_34
*1137 FILLER_0_9_41
*1138 FILLER_0_9_53
*1139 FILLER_0_9_57
*1140 FILLER_0_9_69
*1141 FILLER_0_9_81
*1142 FILLER_0_9_93
*1143 PHY_EDGE_ROW_0_Left_47
*1144 PHY_EDGE_ROW_0_Right_0
*1145 PHY_EDGE_ROW_10_Left_57
*1146 PHY_EDGE_ROW_10_Right_10
*1147 PHY_EDGE_ROW_11_Left_58
*1148 PHY_EDGE_ROW_11_Right_11
*1149 PHY_EDGE_ROW_12_Left_59
*1150 PHY_EDGE_ROW_12_Right_12
*1151 PHY_EDGE_ROW_13_Left_60
*1152 PHY_EDGE_ROW_13_Right_13
*1153 PHY_EDGE_ROW_14_Left_61
*1154 PHY_EDGE_ROW_14_Right_14
*1155 PHY_EDGE_ROW_15_Left_62
*1156 PHY_EDGE_ROW_15_Right_15
*1157 PHY_EDGE_ROW_16_Left_63
*1158 PHY_EDGE_ROW_16_Right_16
*1159 PHY_EDGE_ROW_17_Left_64
*1160 PHY_EDGE_ROW_17_Right_17
*1161 PHY_EDGE_ROW_18_Left_65
*1162 PHY_EDGE_ROW_18_Right_18
*1163 PHY_EDGE_ROW_19_Left_66
*1164 PHY_EDGE_ROW_19_Right_19
*1165 PHY_EDGE_ROW_1_Left_48
*1166 PHY_EDGE_ROW_1_Right_1
*1167 PHY_EDGE_ROW_20_Left_67
*1168 PHY_EDGE_ROW_20_Right_20
*1169 PHY_EDGE_ROW_21_Left_68
*1170 PHY_EDGE_ROW_21_Right_21
*1171 PHY_EDGE_ROW_22_Left_69
*1172 PHY_EDGE_ROW_22_Right_22
*1173 PHY_EDGE_ROW_23_Left_70
*1174 PHY_EDGE_ROW_23_Right_23
*1175 PHY_EDGE_ROW_24_Left_71
*1176 PHY_EDGE_ROW_24_Right_24
*1177 PHY_EDGE_ROW_25_Left_72
*1178 PHY_EDGE_ROW_25_Right_25
*1179 PHY_EDGE_ROW_26_Left_73
*1180 PHY_EDGE_ROW_26_Right_26
*1181 PHY_EDGE_ROW_27_Left_74
*1182 PHY_EDGE_ROW_27_Right_27
*1183 PHY_EDGE_ROW_28_Left_75
*1184 PHY_EDGE_ROW_28_Right_28
*1185 PHY_EDGE_ROW_29_Left_76
*1186 PHY_EDGE_ROW_29_Right_29
*1187 PHY_EDGE_ROW_2_Left_49
*1188 PHY_EDGE_ROW_2_Right_2
*1189 PHY_EDGE_ROW_30_Left_77
*1190 PHY_EDGE_ROW_30_Right_30
*1191 PHY_EDGE_ROW_31_Left_78
*1192 PHY_EDGE_ROW_31_Right_31
*1193 PHY_EDGE_ROW_32_Left_79
*1194 PHY_EDGE_ROW_32_Right_32
*1195 PHY_EDGE_ROW_33_Left_80
*1196 PHY_EDGE_ROW_33_Right_33
*1197 PHY_EDGE_ROW_34_Left_81
*1198 PHY_EDGE_ROW_34_Right_34
*1199 PHY_EDGE_ROW_35_Left_82
*1200 PHY_EDGE_ROW_35_Right_35
*1201 PHY_EDGE_ROW_36_Left_83
*1202 PHY_EDGE_ROW_36_Right_36
*1203 PHY_EDGE_ROW_37_Left_84
*1204 PHY_EDGE_ROW_37_Right_37
*1205 PHY_EDGE_ROW_38_Left_85
*1206 PHY_EDGE_ROW_38_Right_38
*1207 PHY_EDGE_ROW_39_Left_86
*1208 PHY_EDGE_ROW_39_Right_39
*1209 PHY_EDGE_ROW_3_Left_50
*1210 PHY_EDGE_ROW_3_Right_3
*1211 PHY_EDGE_ROW_40_Left_87
*1212 PHY_EDGE_ROW_40_Right_40
*1213 PHY_EDGE_ROW_41_Left_88
*1214 PHY_EDGE_ROW_41_Right_41
*1215 PHY_EDGE_ROW_42_Left_89
*1216 PHY_EDGE_ROW_42_Right_42
*1217 PHY_EDGE_ROW_43_Left_90
*1218 PHY_EDGE_ROW_43_Right_43
*1219 PHY_EDGE_ROW_44_Left_91
*1220 PHY_EDGE_ROW_44_Right_44
*1221 PHY_EDGE_ROW_45_Left_92
*1222 PHY_EDGE_ROW_45_Right_45
*1223 PHY_EDGE_ROW_46_Left_93
*1224 PHY_EDGE_ROW_46_Right_46
*1225 PHY_EDGE_ROW_4_Left_51
*1226 PHY_EDGE_ROW_4_Right_4
*1227 PHY_EDGE_ROW_5_Left_52
*1228 PHY_EDGE_ROW_5_Right_5
*1229 PHY_EDGE_ROW_6_Left_53
*1230 PHY_EDGE_ROW_6_Right_6
*1231 PHY_EDGE_ROW_7_Left_54
*1232 PHY_EDGE_ROW_7_Right_7
*1233 PHY_EDGE_ROW_8_Left_55
*1234 PHY_EDGE_ROW_8_Right_8
*1235 PHY_EDGE_ROW_9_Left_56
*1236 PHY_EDGE_ROW_9_Right_9
*1237 TAP_TAPCELL_ROW_0_94
*1238 TAP_TAPCELL_ROW_0_95
*1239 TAP_TAPCELL_ROW_0_96
*1240 TAP_TAPCELL_ROW_0_97
*1241 TAP_TAPCELL_ROW_0_98
*1242 TAP_TAPCELL_ROW_0_99
*1243 TAP_TAPCELL_ROW_10_127
*1244 TAP_TAPCELL_ROW_10_128
*1245 TAP_TAPCELL_ROW_10_129
*1246 TAP_TAPCELL_ROW_11_130
*1247 TAP_TAPCELL_ROW_11_131
*1248 TAP_TAPCELL_ROW_11_132
*1249 TAP_TAPCELL_ROW_12_133
*1250 TAP_TAPCELL_ROW_12_134
*1251 TAP_TAPCELL_ROW_12_135
*1252 TAP_TAPCELL_ROW_13_136
*1253 TAP_TAPCELL_ROW_13_137
*1254 TAP_TAPCELL_ROW_13_138
*1255 TAP_TAPCELL_ROW_14_139
*1256 TAP_TAPCELL_ROW_14_140
*1257 TAP_TAPCELL_ROW_14_141
*1258 TAP_TAPCELL_ROW_15_142
*1259 TAP_TAPCELL_ROW_15_143
*1260 TAP_TAPCELL_ROW_15_144
*1261 TAP_TAPCELL_ROW_16_145
*1262 TAP_TAPCELL_ROW_16_146
*1263 TAP_TAPCELL_ROW_16_147
*1264 TAP_TAPCELL_ROW_17_148
*1265 TAP_TAPCELL_ROW_17_149
*1266 TAP_TAPCELL_ROW_17_150
*1267 TAP_TAPCELL_ROW_18_151
*1268 TAP_TAPCELL_ROW_18_152
*1269 TAP_TAPCELL_ROW_18_153
*1270 TAP_TAPCELL_ROW_19_154
*1271 TAP_TAPCELL_ROW_19_155
*1272 TAP_TAPCELL_ROW_19_156
*1273 TAP_TAPCELL_ROW_1_100
*1274 TAP_TAPCELL_ROW_1_101
*1275 TAP_TAPCELL_ROW_1_102
*1276 TAP_TAPCELL_ROW_20_157
*1277 TAP_TAPCELL_ROW_20_158
*1278 TAP_TAPCELL_ROW_20_159
*1279 TAP_TAPCELL_ROW_21_160
*1280 TAP_TAPCELL_ROW_21_161
*1281 TAP_TAPCELL_ROW_21_162
*1282 TAP_TAPCELL_ROW_22_163
*1283 TAP_TAPCELL_ROW_22_164
*1284 TAP_TAPCELL_ROW_22_165
*1285 TAP_TAPCELL_ROW_23_166
*1286 TAP_TAPCELL_ROW_23_167
*1287 TAP_TAPCELL_ROW_23_168
*1288 TAP_TAPCELL_ROW_24_169
*1289 TAP_TAPCELL_ROW_24_170
*1290 TAP_TAPCELL_ROW_24_171
*1291 TAP_TAPCELL_ROW_25_172
*1292 TAP_TAPCELL_ROW_25_173
*1293 TAP_TAPCELL_ROW_25_174
*1294 TAP_TAPCELL_ROW_26_175
*1295 TAP_TAPCELL_ROW_26_176
*1296 TAP_TAPCELL_ROW_26_177
*1297 TAP_TAPCELL_ROW_27_178
*1298 TAP_TAPCELL_ROW_27_179
*1299 TAP_TAPCELL_ROW_27_180
*1300 TAP_TAPCELL_ROW_28_181
*1301 TAP_TAPCELL_ROW_28_182
*1302 TAP_TAPCELL_ROW_28_183
*1303 TAP_TAPCELL_ROW_29_184
*1304 TAP_TAPCELL_ROW_29_185
*1305 TAP_TAPCELL_ROW_29_186
*1306 TAP_TAPCELL_ROW_2_103
*1307 TAP_TAPCELL_ROW_2_104
*1308 TAP_TAPCELL_ROW_2_105
*1309 TAP_TAPCELL_ROW_30_187
*1310 TAP_TAPCELL_ROW_30_188
*1311 TAP_TAPCELL_ROW_30_189
*1312 TAP_TAPCELL_ROW_31_190
*1313 TAP_TAPCELL_ROW_31_191
*1314 TAP_TAPCELL_ROW_31_192
*1315 TAP_TAPCELL_ROW_32_193
*1316 TAP_TAPCELL_ROW_32_194
*1317 TAP_TAPCELL_ROW_32_195
*1318 TAP_TAPCELL_ROW_33_196
*1319 TAP_TAPCELL_ROW_33_197
*1320 TAP_TAPCELL_ROW_33_198
*1321 TAP_TAPCELL_ROW_34_199
*1322 TAP_TAPCELL_ROW_34_200
*1323 TAP_TAPCELL_ROW_34_201
*1324 TAP_TAPCELL_ROW_35_202
*1325 TAP_TAPCELL_ROW_35_203
*1326 TAP_TAPCELL_ROW_35_204
*1327 TAP_TAPCELL_ROW_36_205
*1328 TAP_TAPCELL_ROW_36_206
*1329 TAP_TAPCELL_ROW_36_207
*1330 TAP_TAPCELL_ROW_37_208
*1331 TAP_TAPCELL_ROW_37_209
*1332 TAP_TAPCELL_ROW_37_210
*1333 TAP_TAPCELL_ROW_38_211
*1334 TAP_TAPCELL_ROW_38_212
*1335 TAP_TAPCELL_ROW_38_213
*1336 TAP_TAPCELL_ROW_39_214
*1337 TAP_TAPCELL_ROW_39_215
*1338 TAP_TAPCELL_ROW_39_216
*1339 TAP_TAPCELL_ROW_3_106
*1340 TAP_TAPCELL_ROW_3_107
*1341 TAP_TAPCELL_ROW_3_108
*1342 TAP_TAPCELL_ROW_40_217
*1343 TAP_TAPCELL_ROW_40_218
*1344 TAP_TAPCELL_ROW_40_219
*1345 TAP_TAPCELL_ROW_41_220
*1346 TAP_TAPCELL_ROW_41_221
*1347 TAP_TAPCELL_ROW_41_222
*1348 TAP_TAPCELL_ROW_42_223
*1349 TAP_TAPCELL_ROW_42_224
*1350 TAP_TAPCELL_ROW_42_225
*1351 TAP_TAPCELL_ROW_43_226
*1352 TAP_TAPCELL_ROW_43_227
*1353 TAP_TAPCELL_ROW_43_228
*1354 TAP_TAPCELL_ROW_44_229
*1355 TAP_TAPCELL_ROW_44_230
*1356 TAP_TAPCELL_ROW_44_231
*1357 TAP_TAPCELL_ROW_45_232
*1358 TAP_TAPCELL_ROW_45_233
*1359 TAP_TAPCELL_ROW_45_234
*1360 TAP_TAPCELL_ROW_46_235
*1361 TAP_TAPCELL_ROW_46_236
*1362 TAP_TAPCELL_ROW_46_237
*1363 TAP_TAPCELL_ROW_46_238
*1364 TAP_TAPCELL_ROW_46_239
*1365 TAP_TAPCELL_ROW_46_240
*1366 TAP_TAPCELL_ROW_4_109
*1367 TAP_TAPCELL_ROW_4_110
*1368 TAP_TAPCELL_ROW_4_111
*1369 TAP_TAPCELL_ROW_5_112
*1370 TAP_TAPCELL_ROW_5_113
*1371 TAP_TAPCELL_ROW_5_114
*1372 TAP_TAPCELL_ROW_6_115
*1373 TAP_TAPCELL_ROW_6_116
*1374 TAP_TAPCELL_ROW_6_117
*1375 TAP_TAPCELL_ROW_7_118
*1376 TAP_TAPCELL_ROW_7_119
*1377 TAP_TAPCELL_ROW_7_120
*1378 TAP_TAPCELL_ROW_8_121
*1379 TAP_TAPCELL_ROW_8_122
*1380 TAP_TAPCELL_ROW_8_123
*1381 TAP_TAPCELL_ROW_9_124
*1382 TAP_TAPCELL_ROW_9_125
*1383 TAP_TAPCELL_ROW_9_126
*1384 _170_
*1385 _171_
*1386 _172_
*1387 _173_
*1388 _174_
*1389 _175_
*1390 _176_
*1391 _177_
*1392 _178_
*1393 _179_
*1394 _180_
*1395 _181_
*1396 _182_
*1397 _183_
*1398 _184_
*1399 _185_
*1400 _186_
*1401 _187_
*1402 _188_
*1403 _189_
*1404 _190_
*1405 _191_
*1406 _192_
*1407 _193_
*1408 _194_
*1409 _195_
*1410 _196_
*1411 _197_
*1412 _198_
*1413 _199_
*1414 _200_
*1415 _201_
*1416 _202_
*1417 _203_
*1418 _204_
*1419 _205_
*1420 _206_
*1421 _207_
*1422 _208_
*1423 _209_
*1424 _210_
*1425 _211_
*1426 _212_
*1427 _213_
*1428 _214_
*1429 _215_
*1430 _216_
*1431 _217_
*1432 _218_
*1433 _219_
*1434 _220_
*1435 _221_
*1436 _222_
*1437 _223_
*1438 _224_
*1439 _225_
*1440 _226_
*1441 _227_
*1442 _228_
*1443 _229_
*1444 _230_
*1445 _231_
*1446 _232_
*1447 _233_
*1448 _234_
*1449 _235_
*1450 _236_
*1451 _237_
*1452 _238_
*1453 _239_
*1454 _240_
*1455 _241_
*1456 _242_
*1457 _243_
*1458 _244_
*1459 _245_
*1460 _246_
*1461 _247_
*1462 _248_
*1463 _249_
*1464 _250_
*1465 _251_
*1466 _252_
*1467 _253_
*1468 _254_
*1469 _255_
*1470 _256_
*1471 _257_
*1472 _258_
*1473 _259_
*1474 _260_
*1475 _261_
*1476 _262_
*1477 _263_
*1478 _264_
*1479 _265_
*1480 _266_
*1481 _267_
*1482 _268_
*1483 _269_
*1484 _270_
*1485 _271_
*1486 _272_
*1487 _273_
*1488 _274_
*1489 _275_
*1490 _276_
*1491 _277_
*1492 _278_
*1493 _279_
*1494 _280_
*1495 _281_
*1496 _282_
*1497 _283_
*1498 _284_
*1499 _285_
*1500 _286_
*1501 _287_
*1502 _288_
*1503 _289_
*1504 _290_
*1505 _291_
*1506 _292_
*1507 _293_
*1508 _294_
*1509 _295_
*1510 _296_
*1511 _297_
*1512 _298_
*1513 _299_
*1514 _300_
*1515 _301_
*1516 _302_
*1517 _303_
*1518 _304_
*1519 _305_
*1520 _306_
*1521 _307_
*1522 _308_
*1523 _309_
*1524 _310_
*1525 _311_
*1526 _312_
*1527 _313_
*1528 _314_
*1529 _315_
*1530 _316_
*1531 _317_
*1532 _318_
*1533 _319_
*1534 _320_
*1535 _321_
*1536 _322_
*1537 _323_
*1538 _324_
*1539 _325_
*1540 _326_
*1541 _327_
*1542 _328_
*1543 _329_
*1544 _330_
*1545 _331_
*1546 _332_
*1547 _333_
*1548 _334_
*1549 _335_
*1550 _336_
*1551 _337_
*1552 _338_
*1553 _339_
*1554 _340_
*1555 _341_
*1556 _342_
*1557 _343_
*1558 _344_
*1559 _345_
*1560 _346_
*1561 _347_
*1562 input1
*1563 input10
*1564 input11
*1565 input12
*1566 input13
*1567 input14
*1568 input15
*1569 input16
*1570 input17
*1571 input18
*1572 input19
*1573 input2
*1574 input3
*1575 input4
*1576 input5
*1577 input6
*1578 input7
*1579 input8
*1580 input9
*1581 output20
*1582 output21
*1583 output22
*1584 output23
*1585 output24
*1586 output25
*1587 output26
*1588 output27
*1589 rebuffer1
*1590 rebuffer2
*1591 rebuffer3
*1592 rebuffer4

*PORTS
in1[0] I
in1[1] I
in1[2] I
in1[3] I
in1[4] I
in1[5] I
in1[6] I
in1[7] I
in2[0] I
in2[1] I
in2[2] I
in2[3] I
in2[4] I
in2[5] I
in2[6] I
in2[7] I
op[0] I
op[1] I
op[2] I
out[0] O
out[1] O
out[2] O
out[3] O
out[4] O
out[5] O
out[6] O
out[7] O

*D_NET *3 0.000563768
*CONN
*P in1[0] I
*I *1562:A I *D sky130_fd_sc_hd__dlymetal6s2s_1
*CAP
1 in1[0] 0.000281884
2 *1562:A 0.000281884
3 *1562:A *1569:A 0
4 *1562:A *1573:A 0
*RES
1 in1[0] *1562:A 20.4803 
*END

*D_NET *4 0.000675579
*CONN
*P in1[1] I
*I *1573:A I *D sky130_fd_sc_hd__clkbuf_2
*CAP
1 in1[1] 0.000313188
2 *1573:A 0.000313188
3 *1573:A *1574:A 0
4 *1573:A *56:62 4.92044e-05
5 *1562:A *1573:A 0
*RES
1 in1[1] *1573:A 19.7128 
*END

*D_NET *5 0.000593709
*CONN
*P in1[2] I
*I *1574:A I *D sky130_fd_sc_hd__buf_2
*CAP
1 in1[2] 0.000296854
2 *1574:A 0.000296854
3 *1574:A *1575:A 0
4 *1574:A *56:62 0
5 *1573:A *1574:A 0
*RES
1 in1[2] *1574:A 20.7838 
*END

*D_NET *6 0.00069151
*CONN
*P in1[3] I
*I *1575:A I *D sky130_fd_sc_hd__buf_2
*CAP
1 in1[3] 0.000345755
2 *1575:A 0.000345755
3 *1575:A *1576:A 0
4 *1575:A *56:62 0
5 *1574:A *1575:A 0
*RES
1 in1[3] *1575:A 20.2479 
*END

*D_NET *7 0.000578318
*CONN
*P in1[4] I
*I *1576:A I *D sky130_fd_sc_hd__buf_2
*CAP
1 in1[4] 0.000289159
2 *1576:A 0.000289159
3 *1576:A *1577:A 0
4 *1575:A *1576:A 0
*RES
1 in1[4] *1576:A 20.4803 
*END

*D_NET *8 0.000635158
*CONN
*P in1[5] I
*I *1577:A I *D sky130_fd_sc_hd__buf_2
*CAP
1 in1[5] 0.000317579
2 *1577:A 0.000317579
3 *1577:A *1578:A 0
4 *1577:A *191:12 0
5 *1576:A *1577:A 0
*RES
1 in1[5] *1577:A 19.9443 
*END

*D_NET *9 0.000608259
*CONN
*P in1[6] I
*I *1578:A I *D sky130_fd_sc_hd__buf_2
*CAP
1 in1[6] 0.00030413
2 *1578:A 0.00030413
3 *1578:A *1579:A 0
4 *1577:A *1578:A 0
*RES
1 in1[6] *1578:A 20.7838 
*END

*D_NET *10 0.000645654
*CONN
*P in1[7] I
*I *1579:A I *D sky130_fd_sc_hd__buf_4
*CAP
1 in1[7] 0.000322827
2 *1579:A 0.000322827
3 *1578:A *1579:A 0
*RES
1 in1[7] *1579:A 20.2479 
*END

*D_NET *11 0.000651489
*CONN
*P in2[0] I
*I *1580:A I *D sky130_fd_sc_hd__clkbuf_2
*CAP
1 in2[0] 0.000325745
2 *1580:A 0.000325745
3 *1580:A *1563:A 0
4 *1580:A *1572:A 0
*RES
1 in2[0] *1580:A 20.891 
*END

*D_NET *12 0.000705495
*CONN
*P in2[1] I
*I *1563:A I *D sky130_fd_sc_hd__buf_2
*CAP
1 in2[1] 0.000352747
2 *1563:A 0.000352747
3 *1563:A *1564:A 0
4 *1563:A *203:31 0
5 *1580:A *1563:A 0
*RES
1 in2[1] *1563:A 21.6946 
*END

*D_NET *13 0.000676556
*CONN
*P in2[2] I
*I *1564:A I *D sky130_fd_sc_hd__clkbuf_2
*CAP
1 in2[2] 0.000338278
2 *1564:A 0.000338278
3 *1564:A *1565:A 0
4 *1564:A *203:31 0
5 *1563:A *1564:A 0
*RES
1 in2[2] *1564:A 21.1946 
*END

*D_NET *14 0.000986415
*CONN
*P in2[3] I
*I *1565:A I *D sky130_fd_sc_hd__clkbuf_2
*CAP
1 in2[3] 0.000301641
2 *1565:A 0.000301641
3 *1565:A *1388:B 0.000112968
4 *1565:A *1566:A 0
5 *1565:A *203:31 8.32242e-05
6 *1565:A *206:87 0.000186942
7 *1564:A *1565:A 0
*RES
1 in2[3] *1565:A 20.3199 
*END

*D_NET *15 0.000667478
*CONN
*P in2[4] I
*I *1566:A I *D sky130_fd_sc_hd__clkbuf_4
*CAP
1 in2[4] 0.000333739
2 *1566:A 0.000333739
3 *1566:A *1567:A 0
4 *1565:A *1566:A 0
*RES
1 in2[4] *1566:A 20.891 
*END

*D_NET *16 0.000705495
*CONN
*P in2[5] I
*I *1567:A I *D sky130_fd_sc_hd__buf_2
*CAP
1 in2[5] 0.000352747
2 *1567:A 0.000352747
3 *1567:A *1388:B 0
4 *1567:A *1568:A 0
5 *1566:A *1567:A 0
*RES
1 in2[5] *1567:A 21.6946 
*END

*D_NET *17 0.00060731
*CONN
*P in2[6] I
*I *1568:A I *D sky130_fd_sc_hd__buf_2
*CAP
1 in2[6] 0.000303655
2 *1568:A 0.000303655
3 *1568:A *1388:B 0
4 *1568:A *1569:A 0
5 *1567:A *1568:A 0
*RES
1 in2[6] *1568:A 20.7838 
*END

*D_NET *18 0.000848479
*CONN
*P in2[7] I
*I *1569:A I *D sky130_fd_sc_hd__clkbuf_4
*CAP
1 in2[7] 0.000330433
2 *1569:A 0.000330433
3 *1569:A *205:12 0.000187613
4 *1562:A *1569:A 0
5 *1568:A *1569:A 0
*RES
1 in2[7] *1569:A 20.3199 
*END

*D_NET *19 0.000694675
*CONN
*P op[0] I
*I *1570:A I *D sky130_fd_sc_hd__buf_2
*CAP
1 op[0] 0.000347337
2 *1570:A 0.000347337
3 *1570:A *1571:A 0
4 *1570:A *93:20 0
*RES
1 op[0] *1570:A 21.6946 
*END

*D_NET *20 0.000654516
*CONN
*P op[1] I
*I *1571:A I *D sky130_fd_sc_hd__clkbuf_4
*CAP
1 op[1] 0.000327258
2 *1571:A 0.000327258
3 *1571:A *1572:A 0
4 *1570:A *1571:A 0
*RES
1 op[1] *1571:A 21.1946 
*END

*D_NET *21 0.000815863
*CONN
*P op[2] I
*I *1572:A I *D sky130_fd_sc_hd__clkbuf_4
*CAP
1 op[2] 0.000380454
2 *1572:A 0.000380454
3 *1572:A *203:31 5.49544e-05
4 *1571:A *1572:A 0
5 *1580:A *1572:A 0
*RES
1 op[2] *1572:A 22.4088 
*END

*D_NET *22 0.000538264
*CONN
*P out[0] O
*I *1581:X O *D sky130_fd_sc_hd__buf_2
*CAP
1 out[0] 0.000263034
2 *1581:X 0.000263034
3 out[0] *1581:A 1.21955e-05
*RES
1 *1581:X out[0] 18.267 
*END

*D_NET *23 0.000784104
*CONN
*P out[1] O
*I *1582:X O *D sky130_fd_sc_hd__buf_2
*CAP
1 out[1] 0.000372941
2 *1582:X 0.000372941
3 out[1] *182:12 3.82216e-05
4 out[1] *213:32 0
*RES
1 *1582:X out[1] 19.4813 
*END

*D_NET *24 0.000642295
*CONN
*P out[2] O
*I *1583:X O *D sky130_fd_sc_hd__buf_2
*CAP
1 out[2] 0.000312154
2 *1583:X 0.000312154
3 out[2] *1478:A 0
4 out[2] *1489:B 1.21955e-05
5 out[2] *214:10 5.7903e-06
*RES
1 *1583:X out[2] 18.267 
*END

*D_NET *25 0.000916156
*CONN
*P out[3] O
*I *1584:X O *D sky130_fd_sc_hd__buf_2
*CAP
1 out[3] 0.000341683
2 *1584:X 0.000341683
3 out[3] *1439:A 0.000117421
4 out[3] *50:29 0.000115369
*RES
1 *1584:X out[3] 19.4813 
*END

*D_NET *26 0.000721177
*CONN
*P out[4] O
*I *1585:X O *D sky130_fd_sc_hd__buf_2
*CAP
1 out[4] 0.000339375
2 *1585:X 0.000339375
3 out[4] *1439:A 2.18087e-05
4 out[4] *50:29 2.06178e-05
*RES
1 *1585:X out[4] 18.267 
*END

*D_NET *27 0.00083744
*CONN
*P out[5] O
*I *1586:X O *D sky130_fd_sc_hd__buf_2
*CAP
1 out[5] 0.000322134
2 *1586:X 0.000322134
3 out[5] *1505:A1 3.48381e-05
4 out[5] *1515:B1_N 4.29654e-05
5 out[5] *50:29 0.000115369
*RES
1 *1586:X out[5] 19.4813 
*END

*D_NET *28 0.00101917
*CONN
*P out[6] O
*I *1587:X O *D sky130_fd_sc_hd__buf_2
*CAP
1 out[6] 0.000499274
2 *1587:X 0.000499274
3 out[6] *1522:A2 2.06178e-05
4 out[6] *188:18 0
*RES
1 *1587:X out[6] 18.6273 
*END

*D_NET *29 0.00122757
*CONN
*P out[7] O
*I *1588:X O *D sky130_fd_sc_hd__buf_6
*CAP
1 out[7] 0.000602217
2 *1588:X 0.000602217
3 out[7] *1588:A 7.20217e-06
4 out[7] *50:10 1.59373e-05
*RES
1 *1588:X out[7] 22.003 
*END

*D_NET *30 0.0216831
*CONN
*I *1458:A1 I *D sky130_fd_sc_hd__o21a_2
*I *1459:B I *D sky130_fd_sc_hd__or3_4
*I *1456:X O *D sky130_fd_sc_hd__and3_1
*CAP
1 *1458:A1 0.000973467
2 *1459:B 0.000987207
3 *1456:X 0.00287171
4 *30:10 0.00211425
5 *30:8 0.00302528
6 *1458:A1 *67:24 0.000135968
7 *1458:A1 *69:14 0.000584684
8 *1458:A1 *131:62 0.000517165
9 *1458:A1 *131:70 0.000136682
10 *1458:A1 *147:25 0.000152264
11 *1458:A1 *153:12 0.000701632
12 *1458:A1 *155:36 4.38243e-05
13 *1458:A1 *156:39 8.32171e-05
14 *1458:A1 *195:12 0.000219184
15 *1458:A1 *211:56 0.000692382
16 *1459:B *1437:A 0.000216755
17 *1459:B *1524:A1 1.21258e-05
18 *1459:B *1524:A2 6.93704e-06
19 *1459:B *1524:B1 0.000137561
20 *1459:B *1524:B2 2.59355e-05
21 *1459:B *94:10 0.000397789
22 *1459:B *131:95 0.000887027
23 *1459:B *132:14 0.0030975
24 *1459:B *148:30 0.000148303
25 *1459:B *210:52 0.000267738
26 *30:8 *1456:A 0.00107035
27 *30:8 *1456:C 0.000159055
28 *30:8 *156:14 0.000968712
29 *30:10 *67:24 0.000103244
30 *30:10 *153:12 0.000471733
31 *30:10 *211:56 0.000473393
*RES
1 *1456:X *30:8 49.2464 
2 *30:8 *30:10 6.19643 
3 *30:10 *1459:B 45.1393 
4 *30:10 *1458:A1 49.0321 
*END

*D_NET *31 0.00900207
*CONN
*I *1458:A2 I *D sky130_fd_sc_hd__o21a_2
*I *1459:C I *D sky130_fd_sc_hd__or3_4
*I *1457:Y O *D sky130_fd_sc_hd__a21oi_1
*CAP
1 *1458:A2 0
2 *1459:C 0.00028004
3 *1457:Y 0.000566943
4 *31:28 0.00250605
5 *31:14 0.00279295
6 *1459:C *33:12 5.0368e-05
7 *1459:C *39:20 0.000100239
8 *1459:C *131:95 9.60875e-05
9 *1459:C *132:12 7.6644e-05
10 *1459:C *181:87 0
11 *31:14 *1419:B 0.000168939
12 *31:14 *1419:C 0
13 *31:14 *55:31 0.000720493
14 *31:14 *131:70 5.33005e-05
15 *31:14 *201:71 9.18544e-05
16 *31:14 *210:28 0
17 *31:28 *1413:A1 5.22045e-05
18 *31:28 *1413:B1 0.000303665
19 *31:28 *1415:A 0.000479015
20 *31:28 *1497:A 3.31014e-05
21 *31:28 *39:20 0.000534365
22 *31:28 *56:62 0
23 *31:28 *131:70 9.58126e-05
24 *31:28 *148:30 0
*RES
1 *1457:Y *31:14 30.1393 
2 *31:14 *31:28 49.5357 
3 *31:28 *1459:C 28.1571 
4 *31:14 *1458:A2 9.3 
*END

*D_NET *32 0.0243914
*CONN
*I *1533:B I *D sky130_fd_sc_hd__or3_2
*I *1528:A_N I *D sky130_fd_sc_hd__and2b_1
*I *1464:A2 I *D sky130_fd_sc_hd__o21ai_4
*I *1461:A_N I *D sky130_fd_sc_hd__and3b_2
*I *1458:X O *D sky130_fd_sc_hd__o21a_2
*CAP
1 *1533:B 0.00070462
2 *1528:A_N 0
3 *1464:A2 0.000590025
4 *1461:A_N 0.00147705
5 *1458:X 0.000471981
6 *32:52 0.000905146
7 *32:39 0.00133115
8 *32:20 0.00292391
9 *32:8 0.00245943
10 *1461:A_N *1446:A1 4.82348e-05
11 *1461:A_N *1461:C 1.89507e-06
12 *1461:A_N *1514:A1 0.000109521
13 *1461:A_N *77:20 0.000630075
14 *1461:A_N *81:20 0.000137669
15 *1461:A_N *220:22 9.60337e-06
16 *1464:A2 *1464:B1 0.000312767
17 *1464:A2 *1550:A1 0.00028579
18 *1464:A2 *1589:A 2.12005e-05
19 *1464:A2 *38:6 0.000513582
20 *1464:A2 *130:33 2.8078e-05
21 *1464:A2 *136:69 0.00202912
22 *1533:B *1518:C1 0.000440581
23 *1533:B *35:84 0.000446322
24 *1533:B *41:44 0
25 *1533:B *210:10 0.000505399
26 *32:8 *131:62 0.000306375
27 *32:20 *1422:B 0.000135574
28 *32:20 *66:36 0.000272233
29 *32:20 *69:14 0.000166407
30 *32:20 *117:16 0.00138885
31 *32:20 *173:10 0.000880514
32 *32:20 *173:37 2.11419e-05
33 *32:20 *184:16 9.96487e-05
34 *32:20 *193:56 0.000163466
35 *32:20 *200:24 0.000266092
36 *32:20 *200:55 0.000739108
37 *32:20 *211:24 0.000252305
38 *32:20 *211:56 0.0006423
39 *32:39 *1511:A1 0.000478047
40 *32:39 *69:14 7.91312e-05
41 *32:39 *117:16 0.000196391
42 *32:39 *210:22 0.00100287
43 *32:52 *1404:A 1.07807e-05
44 *32:52 *1511:A1 0.000143845
45 *32:52 *1518:C1 1.25366e-05
46 *32:52 *116:28 0.000190738
47 *32:52 *210:10 0.000168503
48 *32:52 *210:22 0.000391391
*RES
1 *1458:X *32:8 19.675 
2 *32:8 *32:20 47.5082 
3 *32:20 *1461:A_N 20.4885 
4 *32:8 *32:39 16.5714 
5 *32:39 *1464:A2 34.0679 
6 *32:39 *32:52 7.10714 
7 *32:52 *1528:A_N 13.8 
8 *32:52 *1533:B 29.3893 
*END

*D_NET *33 0.0257868
*CONN
*I *1528:B I *D sky130_fd_sc_hd__and2b_1
*I *1461:B I *D sky130_fd_sc_hd__and3b_2
*I *1459:X O *D sky130_fd_sc_hd__or3_4
*CAP
1 *1528:B 0
2 *1461:B 0.00127373
3 *1459:X 0.000826412
4 *33:49 0.00132643
5 *33:28 0.00232942
6 *33:16 0.00439191
7 *33:12 0.0028362
8 *1461:B *1446:B2 2.12087e-05
9 *1461:B *144:28 0.00130817
10 *1461:B *227:81 5.62635e-05
11 *1461:B *227:102 0.000214218
12 *33:12 *120:33 7.58841e-05
13 *33:12 *131:95 0.000108911
14 *33:12 *148:30 0.000235196
15 *33:12 *159:12 7.74068e-05
16 *33:16 *117:16 0.000175892
17 *33:16 *148:40 0.000876632
18 *33:16 *209:50 0.000216755
19 *33:28 *1422:A_N 0.000226673
20 *33:28 *1422:B 0.000153078
21 *33:28 *66:36 0.000348901
22 *33:28 *68:8 0.000409978
23 *33:28 *69:14 0.000719958
24 *33:28 *95:30 2.16719e-05
25 *33:28 *153:12 0.000409978
26 *33:28 *164:54 0.000223455
27 *33:28 *190:24 0.00019286
28 *33:28 *195:20 0.000411556
29 *33:28 *195:48 0.000193165
30 *33:28 *228:35 0.000138004
31 *33:49 *1404:A 0.000481737
32 *33:49 *1409:B 4.78056e-05
33 *33:49 *1441:B 0.000515321
34 *33:49 *61:18 9.15842e-06
35 *33:49 *66:34 0.000139076
36 *33:49 *67:24 0.000317711
37 *33:49 *68:8 0.00165166
38 *33:49 *98:8 2.51343e-06
39 *33:49 *98:10 0.000323599
40 *33:49 *153:12 0.00210011
41 *33:49 *186:65 5.49489e-05
42 *33:49 *211:56 1.08359e-05
43 *33:49 *215:12 0.000282059
44 *1459:C *33:12 5.0368e-05
*RES
1 *1459:X *33:12 28.9071 
2 *33:12 *33:16 28.8571 
3 *33:16 *33:28 38.0692 
4 *33:28 *1461:B 26.2643 
5 *33:16 *33:49 47.875 
6 *33:49 *1528:B 9.3 
*END

*D_NET *34 0.00515803
*CONN
*I *1529:B I *D sky130_fd_sc_hd__nor2_1
*I *1461:C I *D sky130_fd_sc_hd__and3b_2
*I *1460:X O *D sky130_fd_sc_hd__or2b_1
*CAP
1 *1529:B 0.000293455
2 *1461:C 0.00123416
3 *1460:X 0
4 *34:4 0.00152761
5 *1461:C *1446:B2 8.1597e-05
6 *1461:C *1460:B_N 4.35306e-05
7 *1461:C *35:12 5.89519e-05
8 *1461:C *35:55 0
9 *1461:C *130:67 2.08375e-05
10 *1461:C *142:112 0.000254514
11 *1461:C *144:30 5.7298e-05
12 *1461:C *158:43 7.6644e-05
13 *1461:C *168:36 0.000303562
14 *1461:C *220:22 0
15 *1529:B *1417:B 0.000342302
16 *1529:B *1429:A 2.26327e-05
17 *1529:B *1467:A 0.00016968
18 *1529:B *63:10 0.000357665
19 *1529:B *140:24 0.000204066
20 *1529:B *198:32 0.000107625
21 *1461:A_N *1461:C 1.89507e-06
*RES
1 *1460:X *34:4 9.3 
2 *34:4 *1461:C 36.983 
3 *34:4 *1529:B 26.9964 
*END

*D_NET *35 0.0273819
*CONN
*I *1533:C I *D sky130_fd_sc_hd__or3_2
*I *1464:A1 I *D sky130_fd_sc_hd__o21ai_4
*I *1530:A I *D sky130_fd_sc_hd__or3b_1
*I *1461:X O *D sky130_fd_sc_hd__and3b_2
*CAP
1 *1533:C 3.58312e-05
2 *1464:A1 0
3 *1530:A 0.000567314
4 *1461:X 0.000201689
5 *35:84 0.00140279
6 *35:71 0.00155632
7 *35:63 0.00235795
8 *35:55 0.00286453
9 *35:12 0.00146493
10 *1530:A *1530:C_N 0.0012839
11 *1530:A *64:10 4.43256e-05
12 *1530:A *99:16 0.00171278
13 *1530:A *118:14 0.000367825
14 *1530:A *178:12 0.00036941
15 *1530:A *196:26 0.00028959
16 *1533:C *37:31 1.02132e-05
17 *35:12 *1446:B2 9.83388e-05
18 *35:12 *1590:A 5.33005e-05
19 *35:12 *144:28 9.83388e-05
20 *35:12 *144:30 0.000168903
21 *35:12 *227:102 0.000234322
22 *35:55 *1469:B 9.41642e-05
23 *35:55 *118:14 0.000186392
24 *35:55 *135:32 0.000385703
25 *35:55 *142:112 9.58126e-05
26 *35:55 *145:10 0.00026023
27 *35:55 *152:16 0.000506957
28 *35:55 *170:18 2.59355e-05
29 *35:55 *178:12 0.000195015
30 *35:55 *183:168 0.000135028
31 *35:55 *220:22 0.000212405
32 *35:55 *228:51 4.24291e-05
33 *35:63 *1470:B 8.6229e-06
34 *35:63 *1471:C1 0
35 *35:63 *1525:B 5.7903e-06
36 *35:63 *1525:C 0
37 *35:63 *44:22 0.00221246
38 *35:63 *130:51 3.27514e-05
39 *35:63 *141:24 0.000678061
40 *35:63 *152:16 0.000190322
41 *35:63 *158:14 1.63307e-05
42 *35:63 *220:16 0
43 *35:63 *220:22 0
44 *35:71 *60:26 0.000196913
45 *35:71 *135:57 6.79303e-05
46 *35:71 *175:20 0.000172695
47 *35:71 *224:8 0.000346336
48 *35:84 *1492:B1 0.000228337
49 *35:84 *37:31 0.00155516
50 *35:84 *60:26 0.000992759
51 *35:84 *60:43 0.000483999
52 *35:84 *88:24 0.000243993
53 *35:84 *135:57 0.000488627
54 *35:84 *182:8 0.00163287
55 *1461:C *35:12 5.89519e-05
56 *1461:C *35:55 0
57 *1533:B *35:84 0.000446322
*RES
1 *1461:X *35:12 20.2286 
2 *35:12 *1530:A 36.5679 
3 *35:12 *35:55 49.6964 
4 *35:55 *35:63 49 
5 *35:63 *35:71 14.9643 
6 *35:71 *1464:A1 13.8 
7 *35:71 *35:84 49.3393 
8 *35:84 *1533:C 10.0321 
*END

*D_NET *36 0.0047873
*CONN
*I *1463:B I *D sky130_fd_sc_hd__and2_4
*I *1462:X O *D sky130_fd_sc_hd__or3_1
*CAP
1 *1463:B 0
2 *1462:X 0.00110292
3 *36:16 0.00110292
4 *36:16 *1397:A 0.000620179
5 *36:16 *1398:A 2.72695e-05
6 *36:16 *1411:A1 4.16114e-05
7 *36:16 *37:10 4.64895e-05
8 *36:16 *46:8 0.000135028
9 *36:16 *130:51 9.41642e-05
10 *36:16 *134:23 0.000138878
11 *36:16 *142:16 0.000260574
12 *36:16 *142:78 8.33853e-05
13 *36:16 *181:38 9.60875e-05
14 *36:16 *186:18 0.000814547
15 *36:16 *187:24 7.62475e-05
16 *36:16 *230:54 0.000146997
*RES
1 *1462:X *36:16 43.175 
2 *36:16 *1463:B 9.3 
*END

*D_NET *37 0.00935492
*CONN
*I *1533:A I *D sky130_fd_sc_hd__or3_2
*I *1464:B1 I *D sky130_fd_sc_hd__o21ai_4
*I *1463:X O *D sky130_fd_sc_hd__and2_4
*CAP
1 *1533:A 0
2 *1464:B1 5.44372e-05
3 *1463:X 0.000256729
4 *37:31 0.00146503
5 *37:10 0.0017762
6 *1464:B1 *1589:A 9.99853e-05
7 *1464:B1 *38:6 0.000225988
8 *37:10 *1471:C1 0.000253563
9 *37:10 *44:22 9.91086e-05
10 *37:10 *186:18 6.05161e-06
11 *37:10 *196:95 2.06178e-05
12 *37:10 *196:114 5.41164e-05
13 *37:10 *230:54 0.000141729
14 *37:31 *1438:A 0.000135028
15 *37:31 *1471:C1 0.00147313
16 *37:31 *1492:B1 0.000523969
17 *37:31 *1518:B1 2.28499e-05
18 *37:31 *49:28 0
19 *37:31 *75:18 0
20 *37:31 *102:12 0.000821758
21 *37:31 *183:70 0
22 *37:31 *208:59 0
23 *1464:A2 *1464:B1 0.000312767
24 *1533:C *37:31 1.02132e-05
25 *35:84 *37:31 0.00155516
26 *36:16 *37:10 4.64895e-05
*RES
1 *1463:X *37:10 19.8357 
2 *37:10 *1464:B1 16.8 
3 *37:10 *37:31 44.875 
4 *37:31 *1533:A 9.3 
*END

*D_NET *38 0.0139359
*CONN
*I *1589:A I *D sky130_fd_sc_hd__dlygate4sd1_1
*I *1471:A1 I *D sky130_fd_sc_hd__a311o_4
*I *1550:A1 I *D sky130_fd_sc_hd__a31o_1
*I *1464:Y O *D sky130_fd_sc_hd__o21ai_4
*CAP
1 *1589:A 0.000130114
2 *1471:A1 0.000728722
3 *1550:A1 0.00101845
4 *1464:Y 0
5 *38:6 0.00208015
6 *38:4 0.000463089
7 *1471:A1 *1471:A2 0.00128528
8 *1471:A1 *1488:A3 0.0001399
9 *1471:A1 *41:44 0.0001399
10 *1471:A1 *66:34 2.06178e-05
11 *1471:A1 *148:12 0.00156735
12 *1471:A1 *155:20 0.00011134
13 *1550:A1 *1550:A2 0.00165542
14 *1550:A1 *1550:B1 0.0010905
15 *1550:A1 *41:44 5.52302e-05
16 *1550:A1 *42:14 0.000340931
17 *1550:A1 *55:31 0
18 *1550:A1 *130:33 0.000308851
19 *1550:A1 *136:69 0.000123251
20 *1550:A1 *180:23 7.02461e-05
21 *1589:A *1470:B 2.62951e-05
22 *1589:A *1471:C1 0
23 *1589:A *1517:A 1.08359e-05
24 *1589:A *130:33 0.000128523
25 *1589:A *130:51 7.50601e-05
26 *38:6 *130:33 0.00121934
27 *1464:A2 *1550:A1 0.00028579
28 *1464:A2 *1589:A 2.12005e-05
29 *1464:A2 *38:6 0.000513582
30 *1464:B1 *1589:A 9.99853e-05
31 *1464:B1 *38:6 0.000225988
*RES
1 *1464:Y *38:4 9.3 
2 *38:4 *38:6 12.0357 
3 *38:6 *1550:A1 46.8 
4 *38:6 *1471:A1 42.3 
5 *38:4 *1589:A 21.9071 
*END

*D_NET *39 0.012718
*CONN
*I *1466:B I *D sky130_fd_sc_hd__xnor2_2
*I *1465:X O *D sky130_fd_sc_hd__o21a_1
*CAP
1 *1466:B 0
2 *1465:X 0.0016497
3 *39:28 0.0011232
4 *39:20 0.0027729
5 *39:20 *1388:A 8.46197e-05
6 *39:20 *1507:A2 0.00010288
7 *39:20 *1507:B1 7.15905e-06
8 *39:20 *1513:A2 0
9 *39:20 *56:62 0
10 *39:20 *132:12 0.00010252
11 *39:20 *136:28 0.000220102
12 *39:20 *147:25 1.90303e-05
13 *39:20 *148:30 0
14 *39:20 *156:39 1.33343e-05
15 *39:20 *181:87 0
16 *39:20 *200:18 0.000225419
17 *39:20 *206:35 3.71887e-05
18 *39:28 *1388:B 8.40012e-05
19 *39:28 *1413:A2 0.00206114
20 *39:28 *1466:A 0.0011097
21 *39:28 *93:20 0.000459952
22 *39:28 *157:12 2.90164e-05
23 *39:28 *203:31 6.20192e-05
24 *39:28 *206:87 0.00191953
25 *1459:C *39:20 0.000100239
26 *31:28 *39:20 0.000534365
*RES
1 *1465:X *39:20 48.7286 
2 *39:20 *39:28 48.9107 
3 *39:28 *1466:B 9.3 
*END

*D_NET *40 0.0185357
*CONN
*I *1468:B I *D sky130_fd_sc_hd__nor2_2
*I *1467:B I *D sky130_fd_sc_hd__nand2_2
*I *1466:Y O *D sky130_fd_sc_hd__xnor2_2
*CAP
1 *1468:B 0.000105899
2 *1467:B 0.000757102
3 *1466:Y 0.000788525
4 *40:29 0.0036658
5 *40:27 0.0035599
6 *40:14 0.00154563
7 *1467:B *1417:B 0.000177821
8 *1467:B *1467:A 8.55871e-05
9 *1467:B *1504:A2 0.000310513
10 *1467:B *1516:A2 0.000159951
11 *1467:B *53:28 0.00015259
12 *1467:B *139:12 0.000708382
13 *1467:B *225:70 8.59056e-05
14 *1467:B *230:20 0.00182528
15 *1468:B *170:31 0.000227736
16 *40:14 *1424:A 0.00013869
17 *40:14 *53:8 5.33005e-05
18 *40:14 *53:28 0.000234866
19 *40:14 *128:8 0.00128546
20 *40:14 *134:33 5.33005e-05
21 *40:14 *139:12 0.000996307
22 *40:14 *225:84 0.000410231
23 *40:14 *230:10 7.33211e-05
24 *40:14 *230:20 2.31791e-05
25 *40:29 *1591:A 0.000473703
26 *40:29 *109:18 0.00030355
27 *40:29 *155:36 0.000118011
28 *40:29 *172:24 7.69179e-05
29 *40:29 *223:10 0.000138217
*RES
1 *1466:Y *40:14 39.7107 
2 *40:14 *1467:B 39.3714 
3 *40:14 *40:27 4.5 
4 *40:27 *40:29 49.8214 
5 *40:29 *1468:B 21.1571 
*END

*D_NET *41 0.0168404
*CONN
*I *1471:A3 I *D sky130_fd_sc_hd__a311o_4
*I *1541:B_N I *D sky130_fd_sc_hd__or2b_2
*I *1550:A3 I *D sky130_fd_sc_hd__a31o_1
*I *1467:Y O *D sky130_fd_sc_hd__nand2_2
*CAP
1 *1471:A3 0
2 *1541:B_N 0
3 *1550:A3 0.000125835
4 *1467:Y 4.92603e-05
5 *41:44 0.00154606
6 *41:27 0.00198553
7 *41:10 0.00178687
8 *41:8 0.00127082
9 *1550:A3 *1550:A2 0.000345251
10 *1550:A3 *117:8 0.000134461
11 *41:8 *1417:B 9.71197e-05
12 *41:10 *1424:A 0.000260518
13 *41:10 *53:28 0.000190097
14 *41:10 *104:22 0.000106304
15 *41:10 *133:18 0.000142728
16 *41:10 *133:20 0.00106579
17 *41:10 *133:38 0.000487308
18 *41:10 *188:96 0.00320984
19 *41:27 *1550:B1 4.58194e-05
20 *41:27 *42:14 2.59355e-05
21 *41:27 *133:18 0.000191403
22 *41:27 *136:61 8.11273e-05
23 *41:27 *136:69 0.000120587
24 *41:27 *188:96 0.000183868
25 *41:27 *225:84 0.000429512
26 *41:44 *1488:A1 0.000998072
27 *41:44 *1488:A2 0.000703166
28 *41:44 *1488:A3 7.96335e-05
29 *41:44 *1506:B 0
30 *41:44 *1512:A2 0
31 *41:44 *1549:B2 1.2294e-05
32 *41:44 *42:14 0.000175905
33 *41:44 *49:28 1.00733e-05
34 *41:44 *55:31 0
35 *41:44 *112:10 4.24291e-05
36 *41:44 *136:69 0.00030615
37 *41:44 *180:23 0.000435501
38 *41:44 *210:10 0
39 *1471:A1 *41:44 0.0001399
40 *1533:B *41:44 0
41 *1550:A1 *41:44 5.52302e-05
*RES
1 *1467:Y *41:8 14.7464 
2 *41:8 *41:10 41.7143 
3 *41:10 *1550:A3 17.2107 
4 *41:10 *41:27 15 
5 *41:27 *1541:B_N 9.3 
6 *41:27 *41:44 45.8393 
7 *41:44 *1471:A3 9.3 
*END

*D_NET *42 0.020595
*CONN
*I *1471:B1 I *D sky130_fd_sc_hd__a311o_4
*I *1541:A I *D sky130_fd_sc_hd__or2b_2
*I *1550:B1 I *D sky130_fd_sc_hd__a31o_1
*I *1468:Y O *D sky130_fd_sc_hd__nor2_2
*CAP
1 *1471:B1 0.000662283
2 *1541:A 0
3 *1550:B1 0.000979315
4 *1468:Y 0.00133128
5 *42:14 0.00239644
6 *42:10 0.00254479
7 *42:8 0.00179666
8 *1471:B1 *1399:B1 2.59355e-05
9 *1471:B1 *45:21 0.000262568
10 *1471:B1 *49:28 5.33005e-05
11 *1471:B1 *155:20 0.000267341
12 *1471:B1 *185:10 0.000946254
13 *1471:B1 *196:114 0.00172559
14 *1550:B1 *71:10 7.6644e-05
15 *1550:B1 *225:78 7.83659e-05
16 *42:8 *1468:A 0.000259273
17 *42:8 *179:10 0.001319
18 *42:8 *185:25 0.0014451
19 *42:10 *137:55 1.09546e-05
20 *42:10 *183:28 2.12521e-05
21 *42:10 *183:53 0.000272362
22 *42:10 *185:10 0.00118479
23 *42:10 *196:114 0.000100823
24 *42:10 *197:37 0.000512862
25 *42:14 *130:33 0.000642691
26 *1550:A1 *1550:B1 0.0010905
27 *1550:A1 *42:14 0.000340931
28 *41:27 *1550:B1 4.58194e-05
29 *41:27 *42:14 2.59355e-05
30 *41:44 *42:14 0.000175905
*RES
1 *1468:Y *42:8 41.0321 
2 *42:8 *42:10 15.9107 
3 *42:10 *42:14 22.6964 
4 *42:14 *1550:B1 31.8179 
5 *42:14 *1541:A 9.3 
6 *42:10 *1471:B1 36.925 
*END

*D_NET *43 0.0143423
*CONN
*I *1470:B I *D sky130_fd_sc_hd__nand2_1
*I *1469:X O *D sky130_fd_sc_hd__or2_1
*CAP
1 *1470:B 0.00236917
2 *1469:X 0.000729497
3 *43:20 0.00357364
4 *43:16 0.00193397
5 *1470:B *1471:C1 0
6 *1470:B *130:51 0
7 *1470:B *175:20 0.00188723
8 *1470:B *224:8 0.000224072
9 *43:16 *1439:A 6.05161e-06
10 *43:16 *1515:B1_N 0.00038313
11 *43:16 *50:29 0.000380824
12 *43:16 *188:61 0.000182592
13 *43:20 *62:12 0.00212848
14 *43:20 *87:12 0.000508765
15 *1589:A *1470:B 2.62951e-05
16 *35:63 *1470:B 8.6229e-06
*RES
1 *1469:X *43:16 38.1393 
2 *43:16 *43:20 41.9643 
3 *43:20 *1470:B 49.1125 
*END

*D_NET *44 0.0123988
*CONN
*I *1471:C1 I *D sky130_fd_sc_hd__a311o_4
*I *1551:A I *D sky130_fd_sc_hd__nand2_1
*I *1470:Y O *D sky130_fd_sc_hd__nand2_1
*CAP
1 *1471:C1 0.00136178
2 *1551:A 0
3 *1470:Y 4.36033e-05
4 *44:22 0.00103837
5 *44:8 0.00244375
6 *1471:C1 *1399:B1 4.74664e-05
7 *1471:C1 *1448:B 0.000488898
8 *1471:C1 *1517:A 0
9 *1471:C1 *49:28 0.000182868
10 *1471:C1 *220:16 9.25014e-06
11 *44:8 *224:8 5.33005e-05
12 *44:22 *1397:A 0.000145753
13 *44:22 *1421:B 6.66506e-05
14 *44:22 *118:8 0.000140856
15 *44:22 *130:51 4.66203e-05
16 *44:22 *141:10 0.00010687
17 *44:22 *141:24 0.000159756
18 *44:22 *149:73 7.19508e-05
19 *44:22 *158:14 0.000585747
20 *44:22 *169:22 4.98055e-06
21 *44:22 *186:18 0.000163338
22 *44:22 *194:49 0.00079104
23 *44:22 *220:16 9.91086e-05
24 *44:22 *230:54 0.000308595
25 *1470:B *1471:C1 0
26 *1589:A *1471:C1 0
27 *35:63 *1471:C1 0
28 *35:63 *44:22 0.00221246
29 *37:10 *1471:C1 0.000253563
30 *37:10 *44:22 9.91086e-05
31 *37:31 *1471:C1 0.00147313
*RES
1 *1470:Y *44:8 14.3357 
2 *44:8 *44:22 48.7679 
3 *44:22 *1551:A 9.3 
4 *44:8 *1471:C1 44.3893 
*END

*D_NET *45 0.0295725
*CONN
*I *1478:C I *D sky130_fd_sc_hd__nand3_1
*I *1490:A3 I *D sky130_fd_sc_hd__a311oi_4
*I *1477:A2 I *D sky130_fd_sc_hd__a21o_1
*I *1552:A I *D sky130_fd_sc_hd__and3_1
*I *1488:A3 I *D sky130_fd_sc_hd__a31o_1
*I *1471:X O *D sky130_fd_sc_hd__a311o_4
*CAP
1 *1478:C 0.000591978
2 *1490:A3 0
3 *1477:A2 0.000229719
4 *1552:A 0.000273929
5 *1488:A3 0.000262416
6 *1471:X 0
7 *45:33 0.0014387
8 *45:29 0.00177768
9 *45:23 0.00191854
10 *45:21 0.00192811
11 *45:4 0.00170659
12 *1477:A2 *1477:A1 0.000645617
13 *1477:A2 *1477:B1 9.44268e-05
14 *1477:A2 *1501:A 0
15 *1477:A2 *51:12 3.67142e-05
16 *1478:C *1462:A 5.29366e-05
17 *1478:C *1462:B 9.40041e-05
18 *1478:C *1478:A 1.88652e-05
19 *1478:C *1478:B 6.95234e-05
20 *1478:C *1548:C1 9.60875e-05
21 *1478:C *116:20 3.14193e-05
22 *1478:C *187:24 9.48188e-05
23 *1488:A3 *1399:B1 0.000352234
24 *1488:A3 *1488:A1 1.16078e-05
25 *1488:A3 *1488:A2 0.0010243
26 *1488:A3 *1488:B1 0.00109139
27 *1488:A3 *49:28 7.19508e-05
28 *1552:A *1477:A1 6.09919e-05
29 *1552:A *1501:A 3.97657e-05
30 *1552:A *72:12 5.33334e-05
31 *45:21 *1411:A2 4.58194e-05
32 *45:21 *66:14 0.00238467
33 *45:21 *137:131 0.000945493
34 *45:21 *155:20 0.000169732
35 *45:21 *185:10 7.43984e-05
36 *45:21 *196:114 0
37 *45:23 *1411:A1 0.00147927
38 *45:23 *1412:A 1.94945e-05
39 *45:23 *154:21 0.00149086
40 *45:29 *1412:A 0.00224508
41 *45:29 *59:8 2.31791e-05
42 *45:29 *59:31 0.000166503
43 *45:29 *154:10 0.000216209
44 *45:29 *154:21 0.00222426
45 *45:29 *189:12 0.000325939
46 *45:33 *1469:A 0.000439011
47 *45:33 *1486:A 0.000239899
48 *45:33 *1508:A 1.1594e-05
49 *45:33 *1514:B1 0.000529686
50 *45:33 *1553:B 0.000400994
51 *45:33 *47:39 7.78392e-05
52 *45:33 *59:8 0.000572872
53 *45:33 *74:28 0.000294137
54 *45:33 *136:108 0
55 *45:33 *189:12 0.000645846
56 *1471:A1 *1488:A3 0.0001399
57 *1471:B1 *45:21 0.000262568
58 *41:44 *1488:A3 7.96335e-05
*RES
1 *1471:X *45:4 9.3 
2 *45:4 *1488:A3 23.3893 
3 *45:4 *45:21 48.8929 
4 *45:21 *45:23 19.5536 
5 *45:23 *45:29 34.7857 
6 *45:29 *45:33 33.4643 
7 *45:33 *1552:A 13.9429 
8 *45:33 *1477:A2 16.4607 
9 *45:29 *1490:A3 13.8 
10 *45:23 *1478:C 25.5857 
*END

*D_NET *46 0.0105808
*CONN
*I *1473:B I *D sky130_fd_sc_hd__xnor2_2
*I *1472:X O *D sky130_fd_sc_hd__a21o_1
*CAP
1 *1473:B 0
2 *1472:X 0.000110462
3 *46:10 0.00178906
4 *46:8 0.00189952
5 *46:10 *1401:B1_N 4.18042e-05
6 *46:10 *1403:B 0.00130538
7 *46:10 *1472:A1 0.000506629
8 *46:10 *1540:A2 0.000216496
9 *46:10 *1540:A3 0.000173129
10 *46:10 *1540:B1 3.33972e-05
11 *46:10 *78:22 0.000340492
12 *46:10 *131:60 0.00226619
13 *46:10 *136:92 0.000396989
14 *46:10 *149:73 5.21016e-05
15 *46:10 *151:22 0.000208869
16 *46:10 *166:16 0.000345919
17 *46:10 *192:28 0.000185248
18 *46:10 *194:24 0.000482666
19 *46:10 *205:53 0
20 *46:10 *218:18 9.14477e-05
21 *36:16 *46:8 0.000135028
*RES
1 *1472:X *46:8 15.1571 
2 *46:8 *46:10 55.375 
3 *46:10 *1473:B 13.8 
*END

*D_NET *47 0.0218173
*CONN
*I *1475:B I *D sky130_fd_sc_hd__nand2_2
*I *1474:B I *D sky130_fd_sc_hd__or2_2
*I *1473:Y O *D sky130_fd_sc_hd__xnor2_2
*CAP
1 *1475:B 0
2 *1474:B 0.000560475
3 *1473:Y 0
4 *47:45 0.00136884
5 *47:39 0.00198671
6 *47:20 0.00168665
7 *47:4 0.00174404
8 *1474:B *1510:B 4.59075e-05
9 *1474:B *48:12 0.00305384
10 *1474:B *57:46 0.000358204
11 *1474:B *225:34 0.00186116
12 *1474:B *227:23 0.000355002
13 *47:20 *1387:A 0.000137639
14 *47:20 *1393:A 5.49544e-05
15 *47:20 *1477:A1 0.000323206
16 *47:20 *48:12 0.000266141
17 *47:20 *57:46 0.00081298
18 *47:20 *74:28 0.000156624
19 *47:20 *80:10 0.000700173
20 *47:20 *196:47 6.54968e-05
21 *47:20 *213:26 3.57844e-05
22 *47:39 *1387:A 0.000211238
23 *47:39 *1426:A 6.64099e-05
24 *47:39 *1486:A 0.000755413
25 *47:39 *1502:A2 0.000632656
26 *47:39 *1508:A 2.06178e-05
27 *47:39 *1514:B1 0.000583038
28 *47:39 *131:48 0.00018052
29 *47:39 *189:12 0.000284269
30 *47:45 *1412:A 0.000121504
31 *47:45 *1475:A 5.49544e-05
32 *47:45 *1502:A2 0.000162639
33 *47:45 *1548:A2 5.36e-05
34 *47:45 *49:12 1.34548e-05
35 *47:45 *134:12 0.000394129
36 *47:45 *137:63 9.35307e-05
37 *47:45 *142:94 0
38 *47:45 *142:112 0
39 *47:45 *189:12 0.00214053
40 *47:45 *222:66 0.000397178
41 *45:33 *47:39 7.78392e-05
*RES
1 *1473:Y *47:4 9.3 
2 *47:4 *47:20 35.9821 
3 *47:20 *1474:B 38.5857 
4 *47:4 *47:39 26.0625 
5 *47:39 *47:45 42.2411 
6 *47:45 *1475:B 9.3 
*END

*D_NET *48 0.0289492
*CONN
*I *1476:A I *D sky130_fd_sc_hd__nand2_1
*I *1487:A I *D sky130_fd_sc_hd__inv_2
*I *1474:X O *D sky130_fd_sc_hd__or2_2
*CAP
1 *1476:A 0.000539243
2 *1487:A 0.00659506
3 *1474:X 0.00244063
4 *48:16 0.00740372
5 *48:12 0.00271005
6 *1476:A *1538:A1 0.00027495
7 *1476:A *1538:A3 0.000144746
8 *1476:A *1538:B1 4.05054e-05
9 *1476:A *1588:A 0.000271898
10 *1476:A *49:71 0.000273596
11 *1476:A *168:36 0
12 *1476:A *220:34 0.000482882
13 *1487:A *1517:A 0.000101582
14 *1487:A *1540:A3 2.76972e-05
15 *1487:A *60:26 0.000340477
16 *1487:A *84:26 0
17 *1487:A *88:24 0.00288797
18 *1487:A *118:14 0.000141331
19 *1487:A *135:32 0.000357944
20 *1487:A *141:24 0.000191774
21 *1487:A *158:14 0.000169671
22 *1487:A *177:24 8.8522e-05
23 *48:12 *168:36 1.31235e-05
24 *48:12 *220:34 9.2539e-06
25 *48:12 *227:8 5.62995e-05
26 *48:12 *227:23 4.14279e-05
27 *48:16 *177:24 2.4912e-05
28 *1474:B *48:12 0.00305384
29 *47:20 *48:12 0.000266141
*RES
1 *1474:X *48:12 48.6125 
2 *48:12 *48:16 3.7813 
3 *48:16 *1487:A 42.7179 
4 *48:16 *1476:A 31.6118 
*END

*D_NET *49 0.0347753
*CONN
*I *1490:A1 I *D sky130_fd_sc_hd__a311oi_4
*I *1476:B I *D sky130_fd_sc_hd__nand2_1
*I *1488:A1 I *D sky130_fd_sc_hd__a31o_1
*I *1475:Y O *D sky130_fd_sc_hd__nand2_2
*CAP
1 *1490:A1 0
2 *1476:B 0
3 *1488:A1 0.000945662
4 *1475:Y 0.00116783
5 *49:71 0.0019436
6 *49:63 0.00234406
7 *49:55 0.00215004
8 *49:28 0.00361564
9 *49:12 0.0055874
10 *1488:A1 *1488:A2 0.000330865
11 *1488:A1 *1488:B1 1.21258e-05
12 *49:12 *1472:A1 0.000112747
13 *49:12 *1475:A 1.13883e-05
14 *49:12 *1548:A2 0.000433797
15 *49:12 *137:63 0.000931329
16 *49:12 *149:73 0.000114269
17 *49:12 *222:66 4.51148e-05
18 *49:28 *1399:B1 6.81384e-05
19 *49:28 *1503:A1 9.00099e-05
20 *49:28 *1503:B1 0.000438735
21 *49:28 *75:18 0.000249268
22 *49:28 *76:16 0
23 *49:28 *114:10 7.55968e-05
24 *49:28 *130:51 0
25 *49:28 *150:14 0.00135793
26 *49:28 *183:70 6.135e-05
27 *49:28 *201:84 0.00195252
28 *49:28 *208:59 0.000100088
29 *49:28 *212:22 0.000335766
30 *49:55 *1403:B 7.05143e-06
31 *49:55 *1540:A3 0.00272553
32 *49:55 *52:24 0.00140743
33 *49:55 *74:28 0.000267983
34 *49:55 *85:22 0
35 *49:55 *131:60 9.09604e-05
36 *49:55 *136:92 0.000130443
37 *49:55 *150:14 0.000295857
38 *49:55 *196:68 0.000141146
39 *49:55 *205:53 2.06112e-05
40 *49:63 *1403:B 6.56593e-05
41 *49:63 *170:18 0.000433698
42 *49:63 *205:53 0.000141039
43 *49:71 *1407:A1 6.06282e-05
44 *49:71 *1435:A 4.15592e-05
45 *49:71 *1505:A1 0.000136347
46 *49:71 *1505:A2 0.00020855
47 *49:71 *1505:B1 4.47378e-05
48 *49:71 *1552:B 0
49 *49:71 *1553:A 0
50 *49:71 *1588:A 0.000259702
51 *49:71 *99:16 0.000277809
52 *49:71 *100:12 0.000315887
53 *49:71 *120:6 0.000751715
54 *49:71 *135:18 1.37292e-05
55 *49:71 *177:24 0.000386766
56 *49:71 *178:12 0
57 *49:71 *204:46 0.000460213
58 *49:71 *218:18 0
59 *1471:B1 *49:28 5.33005e-05
60 *1471:C1 *49:28 0.000182868
61 *1476:A *49:71 0.000273596
62 *1488:A3 *1488:A1 1.16078e-05
63 *1488:A3 *49:28 7.19508e-05
64 *37:31 *49:28 0
65 *41:44 *1488:A1 0.000998072
66 *41:44 *49:28 1.00733e-05
67 *47:45 *49:12 1.34548e-05
*RES
1 *1475:Y *49:12 33.6118 
2 *49:12 *49:28 47.8786 
3 *49:28 *1488:A1 23.9607 
4 *49:12 *49:55 17.0837 
5 *49:55 *49:63 15.1786 
6 *49:63 *49:71 49.5 
7 *49:71 *1476:B 9.3 
8 *49:55 *1490:A1 13.8 
*END

*D_NET *50 0.0189227
*CONN
*I *1478:A I *D sky130_fd_sc_hd__nand3_1
*I *1477:B1 I *D sky130_fd_sc_hd__a21o_1
*I *1476:Y O *D sky130_fd_sc_hd__nand2_1
*CAP
1 *1478:A 0.00042564
2 *1477:B1 0.00048944
3 *1476:Y 0.00209786
4 *50:29 0.002513
5 *50:27 0.0023251
6 *50:12 0.000727181
7 *50:10 0.00209786
8 *1477:B1 *1477:A1 9.99853e-05
9 *1477:B1 *1501:A 8.60236e-06
10 *1478:A *1399:A2 2.16833e-05
11 *1478:A *1478:B 1.77668e-05
12 *1478:A *52:24 3.7538e-06
13 *50:10 *1522:A2 0.000437737
14 *50:10 *1522:B1 0
15 *50:10 *1536:A1 0.000105225
16 *50:10 *1588:A 0.00252286
17 *50:10 *92:14 6.27272e-06
18 *50:10 *188:18 0
19 *50:29 *1439:A 0.00080104
20 *50:29 *1489:A 0.00228569
21 *50:29 *1489:B 8.447e-05
22 *50:29 *1514:A1 0
23 *50:29 *1515:B1_N 0
24 *50:29 *1536:A1 0
25 *50:29 *134:150 0
26 *50:29 *182:12 0
27 *50:29 *213:32 0.000276052
28 *50:29 *214:10 0.000814134
29 out[2] *1478:A 0
30 out[3] *50:29 0.000115369
31 out[4] *50:29 2.06178e-05
32 out[5] *50:29 0.000115369
33 out[7] *50:10 1.59373e-05
34 *1477:A2 *1477:B1 9.44268e-05
35 *1478:C *1478:A 1.88652e-05
36 *43:16 *50:29 0.000380824
*RES
1 *1476:Y *50:10 47.9964 
2 *50:10 *50:12 4.5 
3 *50:12 *1477:B1 16.0321 
4 *50:12 *50:27 7.08929 
5 *50:27 *50:29 62.8125 
6 *50:29 *1478:A 21.843 
*END

*D_NET *51 0.0101682
*CONN
*I *1480:A I *D sky130_fd_sc_hd__and3_1
*I *1477:X O *D sky130_fd_sc_hd__a21o_1
*CAP
1 *1480:A 0
2 *1477:X 0.00018193
3 *51:18 0.00163479
4 *51:12 0.00181672
5 *51:12 *136:108 0.000317587
6 *51:12 *217:16 0.00016494
7 *51:18 *1400:A 6.05161e-06
8 *51:18 *1480:C 2.94157e-05
9 *51:18 *1481:C1 0.000562638
10 *51:18 *1495:A 0.000273269
11 *51:18 *1495:B 5.52238e-05
12 *51:18 *1531:D_N 0.00230204
13 *51:18 *131:31 0.000877563
14 *51:18 *133:58 0.000228792
15 *51:18 *133:60 0.000351521
16 *51:18 *135:18 0.00132897
17 *1477:A2 *51:12 3.67142e-05
*RES
1 *1477:X *51:12 23.3179 
2 *51:12 *51:18 49.0357 
3 *51:18 *1480:A 9.3 
*END

*D_NET *52 0.0241756
*CONN
*I *1480:B I *D sky130_fd_sc_hd__and3_1
*I *1478:Y O *D sky130_fd_sc_hd__nand3_1
*CAP
1 *1480:B 0.000164931
2 *1478:Y 0.0074147
3 *52:24 0.00757963
4 *1480:B *1480:C 0.000154242
5 *1480:B *1531:A 5.00194e-05
6 *1480:B *128:8 1.91418e-05
7 *1480:B *130:99 0.000273444
8 *1480:B *169:49 1.09611e-05
9 *1480:B *230:20 3.67548e-05
10 *52:24 *1399:A2 0.000123359
11 *52:24 *1447:C1 0.000123625
12 *52:24 *1504:A2 0.000383214
13 *52:24 *1515:A1 0
14 *52:24 *1516:A2 0.0025344
15 *52:24 *1548:A1 0
16 *52:24 *1584:A 0
17 *52:24 *53:28 0.000138701
18 *52:24 *82:24 0.00019247
19 *52:24 *85:22 0.000793288
20 *52:24 *104:22 0
21 *52:24 *128:8 0.000330324
22 *52:24 *133:38 0.000114915
23 *52:24 *142:94 5.32001e-06
24 *52:24 *143:26 0.00112873
25 *52:24 *150:14 4.14244e-05
26 *52:24 *167:34 0.000307558
27 *52:24 *170:31 0
28 *52:24 *173:37 0.000351193
29 *52:24 *200:55 4.83837e-05
30 *52:24 *222:45 0
31 *52:24 *225:70 0.000175197
32 *52:24 *230:20 0.000268529
33 *1478:A *52:24 3.7538e-06
34 *49:55 *52:24 0.00140743
*RES
1 *1478:Y *52:24 48.111 
2 *52:24 *1480:B 24.3191 
*END

*D_NET *53 0.0387389
*CONN
*I *1516:A1 I *D sky130_fd_sc_hd__a31o_4
*I *1549:A1 I *D sky130_fd_sc_hd__a221o_1
*I *1540:A2 I *D sky130_fd_sc_hd__a31o_1
*I *1530:C_N I *D sky130_fd_sc_hd__or3b_1
*I *1552:B I *D sky130_fd_sc_hd__and3_1
*I *1491:B I *D sky130_fd_sc_hd__and2b_1
*I *1480:C I *D sky130_fd_sc_hd__and3_1
*I *1479:X O *D sky130_fd_sc_hd__and3_2
*CAP
1 *1516:A1 0.000327342
2 *1549:A1 0.00043694
3 *1540:A2 0.000105738
4 *1530:C_N 0.000545214
5 *1552:B 0.00043182
6 *1491:B 0.000168404
7 *1480:C 0.000205521
8 *1479:X 0.000907918
9 *53:107 0.00082614
10 *53:78 0.00104093
11 *53:76 0.000169629
12 *53:74 0.00286166
13 *53:38 0.000616463
14 *53:32 0.00391938
15 *53:28 0.00259928
16 *53:8 0.00275388
17 *1480:C *130:99 6.07892e-05
18 *1480:C *230:20 0.000325772
19 *1491:B *1491:A_N 0.000498028
20 *1491:B *1521:B1 0.000348207
21 *1491:B *57:10 2.2351e-05
22 *1491:B *64:10 7.21765e-05
23 *1516:A1 *87:14 0.000498994
24 *1516:A1 *133:137 0.000202212
25 *1516:A1 *160:16 0.000443268
26 *1516:A1 *162:14 0.000139337
27 *1516:A1 *225:84 8.41898e-05
28 *1516:A1 *230:10 3.14003e-05
29 *1530:C_N *196:26 0.000392026
30 *1530:C_N *226:48 3.97677e-05
31 *1540:A2 *1473:A 4.91487e-05
32 *1540:A2 *1540:A3 1.00887e-05
33 *1540:A2 *1553:A 0.000100281
34 *1540:A2 *218:18 1.05603e-05
35 *1549:A1 *1549:A2 7.66493e-05
36 *1549:A1 *186:65 0.000165117
37 *1549:A1 *215:12 0.000141734
38 *1549:A1 *230:10 5.33005e-05
39 *1552:B *1553:A 0.00082642
40 *1552:B *218:18 9.32873e-05
41 *53:8 *116:28 5.66971e-05
42 *53:8 *134:33 0.000835443
43 *53:8 *210:22 9.41642e-05
44 *53:28 *1424:A 0.00129321
45 *53:28 *1516:A2 0.000738741
46 *53:28 *76:16 0.000152265
47 *53:28 *85:22 0
48 *53:28 *122:20 5.72435e-05
49 *53:28 *128:8 0.000363054
50 *53:28 *133:18 0.000471397
51 *53:28 *133:20 0.000177618
52 *53:28 *133:137 0.000148152
53 *53:28 *139:12 0.000380162
54 *53:28 *167:34 0.000951414
55 *53:28 *193:8 0.000669628
56 *53:28 *193:18 0.000100248
57 *53:28 *225:78 0.000944132
58 *53:28 *230:10 0.000606872
59 *53:28 *230:20 0.000165074
60 *53:28 *230:41 1.09611e-05
61 *53:32 *1504:B1 8.91963e-06
62 *53:32 *71:10 1.09026e-05
63 *53:32 *82:24 0.000179254
64 *53:32 *122:20 0.000500118
65 *53:32 *123:12 0.00035676
66 *53:32 *133:44 9.53706e-05
67 *53:32 *183:180 0.000394371
68 *53:32 *206:58 0.000166063
69 *53:32 *225:78 3.73779e-05
70 *53:32 *227:23 0.0001595
71 *53:32 *227:45 7.87601e-05
72 *53:38 *1491:A_N 0.000310955
73 *53:38 *130:99 1.60586e-05
74 *53:38 *230:20 4.6374e-05
75 *53:74 *1387:A 0.000643564
76 *53:74 *1491:A_N 8.57023e-05
77 *53:74 *1521:A2 4.30012e-05
78 *53:74 *1521:B1 0.000444882
79 *53:74 *1558:A1 9.14524e-05
80 *53:74 *64:10 1.74903e-05
81 *53:74 *114:8 0.000136682
82 *53:74 *119:10 7.58841e-05
83 *53:74 *137:16 9.31415e-05
84 *53:74 *196:18 7.58841e-05
85 *53:74 *211:24 0.000685665
86 *53:74 *226:48 0.000180355
87 *53:78 *1553:A 0.000120755
88 *53:78 *218:18 3.26063e-05
89 *53:107 *133:137 0.000186425
90 *53:107 *230:10 0.000193187
91 *1467:B *53:28 0.00015259
92 *1480:B *1480:C 0.000154242
93 *1530:A *1530:C_N 0.0012839
94 *40:14 *53:8 5.33005e-05
95 *40:14 *53:28 0.000234866
96 *41:10 *53:28 0.000190097
97 *46:10 *1540:A2 0.000216496
98 *49:71 *1552:B 0
99 *51:18 *1480:C 2.94157e-05
100 *52:24 *53:28 0.000138701
*RES
1 *1479:X *53:8 30.3536 
2 *53:8 *53:28 39.7905 
3 *53:28 *53:32 26.5268 
4 *53:32 *53:38 8.23214 
5 *53:38 *1480:C 18.7821 
6 *53:38 *1491:B 19.8357 
7 *53:32 *53:74 46.8393 
8 *53:74 *53:76 4.5 
9 *53:76 *53:78 1.64286 
10 *53:78 *1552:B 24.55 
11 *53:78 *1530:C_N 27.4786 
12 *53:76 *1540:A2 17.2643 
13 *53:8 *53:107 2.55357 
14 *53:107 *1549:A1 21.7286 
15 *53:107 *1516:A1 24.3179 
*END

*D_NET *54 0.00241551
*CONN
*I *1481:C1 I *D sky130_fd_sc_hd__a211o_1
*I *1480:X O *D sky130_fd_sc_hd__and3_1
*CAP
1 *1481:C1 0.000715105
2 *1480:X 0.000715105
3 *1481:C1 *1384:A 0.000320837
4 *1481:C1 *1510:C 0
5 *1481:C1 *1531:B 1.49807e-05
6 *1481:C1 *1532:A 0
7 *1481:C1 *181:131 8.68453e-05
8 *51:18 *1481:C1 0.000562638
*RES
1 *1480:X *1481:C1 40.8321 
*END

*D_NET *55 0.0178388
*CONN
*I *1483:B I *D sky130_fd_sc_hd__xnor2_2
*I *1507:A2 I *D sky130_fd_sc_hd__o21a_1
*I *1482:X O *D sky130_fd_sc_hd__o31a_4
*CAP
1 *1483:B 0
2 *1507:A2 0.00152715
3 *1482:X 0.0008541
4 *55:31 0.00165948
5 *55:14 0.00404073
6 *1507:A2 *1539:A2 1.21258e-05
7 *1507:A2 *164:38 0.000564675
8 *1507:A2 *181:107 0
9 *1507:A2 *193:18 0.000165432
10 *55:14 *1502:A1 0.00164444
11 *55:14 *1539:A1 3.97677e-05
12 *55:14 *1539:A2 2.46341e-05
13 *55:14 *1539:B1_N 0.000262504
14 *55:14 *95:30 0.000137983
15 *55:14 *108:18 0.00170947
16 *55:14 *153:12 7.14469e-05
17 *55:14 *164:38 0.000182935
18 *55:14 *193:56 0.000136951
19 *55:14 *211:56 7.29712e-05
20 *55:31 *1419:B 3.14008e-05
21 *55:31 *1419:C 0
22 *55:31 *1436:A 0.000499748
23 *55:31 *1592:A 0
24 *55:31 *56:50 0
25 *55:31 *84:26 0.0005577
26 *55:31 *142:30 0.000725589
27 *55:31 *179:10 0.00037801
28 *55:31 *179:40 0.00110504
29 *55:31 *180:23 0
30 *55:31 *209:50 0
31 *55:31 *210:28 0
32 *55:31 *210:32 0
33 *55:31 *210:52 0.000611102
34 *1550:A1 *55:31 0
35 *31:14 *55:31 0.000720493
36 *39:20 *1507:A2 0.00010288
37 *41:44 *55:31 0
*RES
1 *1482:X *55:14 44.2286 
2 *55:14 *1507:A2 41.9429 
3 *55:14 *55:31 46.2143 
4 *55:31 *1483:B 13.8 
*END

*D_NET *56 0.0256344
*CONN
*I *1485:B I *D sky130_fd_sc_hd__nor2_1
*I *1484:B I *D sky130_fd_sc_hd__and2_4
*I *1483:Y O *D sky130_fd_sc_hd__xnor2_2
*CAP
1 *1485:B 0.00160245
2 *1484:B 0
3 *1483:Y 0.00148079
4 *56:71 0.00371661
5 *56:62 0.00152062
6 *56:56 0.00345833
7 *56:52 0.00405187
8 *56:50 0.00148079
9 *1485:B *1485:A 0.000426583
10 *1485:B *1515:A2 0.000103033
11 *1485:B *1525:C 9.83442e-05
12 *1485:B *58:16 8.84345e-05
13 *1485:B *163:33 0.000170314
14 *1485:B *228:78 0.000141729
15 *56:50 *1483:A 1.83053e-05
16 *56:50 *71:10 0.00121162
17 *56:50 *84:26 0
18 *56:50 *131:70 6.85904e-05
19 *56:50 *142:30 0
20 *56:50 *179:40 4.16936e-05
21 *56:50 *209:28 0.000119738
22 *56:56 *1513:A1 4.58194e-05
23 *56:56 *1513:A3 3.67252e-05
24 *56:56 *1513:B1 0.000794951
25 *56:56 *181:70 4.91601e-05
26 *56:62 *1388:A 0
27 *56:62 *1523:B2 0.000471959
28 *56:62 *57:10 3.72153e-05
29 *56:62 *157:12 0.000227729
30 *56:62 *191:12 0.00204697
31 *56:62 *206:16 0.000991159
32 *56:62 *206:87 0.000397134
33 *56:71 *1513:B1 8.84129e-05
34 *56:71 *163:33 0.000393333
35 *56:71 *181:70 0.000204786
36 *1573:A *56:62 4.92044e-05
37 *1574:A *56:62 0
38 *1575:A *56:62 0
39 *31:28 *56:62 0
40 *39:20 *56:62 0
41 *55:31 *56:50 0
*RES
1 *1483:Y *56:50 46.2643 
2 *56:50 *56:52 4.5 
3 *56:52 *56:56 27.625 
4 *56:56 *56:62 47.0893 
5 *56:62 *1484:B 9.3 
6 *56:52 *56:71 25.2946 
7 *56:71 *1485:B 35.5054 
*END

*D_NET *57 0.0190118
*CONN
*I *1486:A I *D sky130_fd_sc_hd__or2_4
*I *1509:A1 I *D sky130_fd_sc_hd__o21ai_2
*I *1510:A I *D sky130_fd_sc_hd__or3_4
*I *1484:X O *D sky130_fd_sc_hd__and2_4
*CAP
1 *1486:A 0.000641575
2 *1509:A1 0.000399192
3 *1510:A 2.68591e-05
4 *1484:X 0.0017615
5 *57:46 0.00141735
6 *57:27 0.00257384
7 *57:10 0.00318723
8 *1486:A *1502:A2 0.000433343
9 *1486:A *74:28 0.000120376
10 *1486:A *136:108 0.000341691
11 *1509:A1 *1509:A2 0.000326688
12 *1509:A1 *1509:B1 0.00043034
13 *1509:A1 *181:131 7.74068e-05
14 *1509:A1 *225:34 3.17148e-05
15 *1510:A *1532:A 4.25427e-05
16 *1510:A *227:23 8.08022e-05
17 *57:10 *1491:A_N 6.79081e-05
18 *57:10 *1510:C 9.15065e-05
19 *57:10 *1532:A 3.92854e-05
20 *57:10 *64:10 0.000729893
21 *57:10 *227:23 0.000440482
22 *57:27 *1510:B 0.000916606
23 *57:27 *80:14 5.52238e-05
24 *57:27 *107:12 2.49484e-05
25 *57:27 *225:34 0.000233027
26 *57:46 *1393:A 5.33005e-05
27 *57:46 *80:14 0.00218779
28 *57:46 *225:34 5.33005e-05
29 *1474:B *57:46 0.000358204
30 *1491:B *57:10 2.2351e-05
31 *45:33 *1486:A 0.000239899
32 *47:20 *57:46 0.00081298
33 *47:39 *1486:A 0.000755413
34 *56:62 *57:10 3.72153e-05
*RES
1 *1484:X *57:10 38.3 
2 *57:10 *1510:A 14.8357 
3 *57:10 *57:27 28.3393 
4 *57:27 *1509:A1 24.6036 
5 *57:27 *57:46 34.1786 
6 *57:46 *1486:A 33.05 
*END

*D_NET *58 0.00672474
*CONN
*I *1486:B I *D sky130_fd_sc_hd__or2_4
*I *1485:Y O *D sky130_fd_sc_hd__nor2_1
*CAP
1 *1486:B 0.000255909
2 *1485:Y 0.000966197
3 *58:16 0.00122211
4 *1486:B *217:16 0.000353922
5 *58:16 *1515:A2 0.000196367
6 *58:16 *183:131 0
7 *58:16 *188:16 0.000272679
8 *58:16 *188:61 0
9 *58:16 *227:108 0.00129
10 *58:16 *228:66 0.00207913
11 *1485:B *58:16 8.84345e-05
*RES
1 *1485:Y *58:16 49.2107 
2 *58:16 *1486:B 14.3536 
*END

*D_NET *59 0.0113269
*CONN
*I *1489:A I *D sky130_fd_sc_hd__nand2_1
*I *1490:B1 I *D sky130_fd_sc_hd__a311oi_4
*I *1486:X O *D sky130_fd_sc_hd__or2_4
*CAP
1 *1489:A 0.00069369
2 *1490:B1 0.000295865
3 *1486:X 0.000208313
4 *59:31 0.00152834
5 *59:8 0.00133883
6 *1489:A *1475:A 1.17091e-05
7 *1489:A *62:8 0.000224575
8 *1489:A *214:10 0.00228569
9 *1490:B1 *1410:A3 0.000240905
10 *1490:B1 *154:10 5.52238e-05
11 *59:8 *1469:A 0.000153047
12 *59:8 *74:28 0.000124005
13 *59:8 *151:22 0.000227683
14 *59:31 *136:100 0.000348207
15 *59:31 *151:22 7.34455e-06
16 *59:31 *154:10 0.00014576
17 *59:31 *227:108 0.000389457
18 *45:29 *59:8 2.31791e-05
19 *45:29 *59:31 0.000166503
20 *45:33 *59:8 0.000572872
21 *50:29 *1489:A 0.00228569
*RES
1 *1486:X *59:8 21.5143 
2 *59:8 *1490:B1 18.8714 
3 *59:8 *59:31 24.6607 
4 *59:31 *1489:A 45.7821 
*END

*D_NET *60 0.0211651
*CONN
*I *1488:B1 I *D sky130_fd_sc_hd__a31o_1
*I *1490:C1 I *D sky130_fd_sc_hd__a311oi_4
*I *1487:Y O *D sky130_fd_sc_hd__inv_2
*CAP
1 *1488:B1 0.000312608
2 *1490:C1 0
3 *1487:Y 0
4 *60:43 0.00230987
5 *60:26 0.00288652
6 *60:6 0.00488378
7 *1488:B1 *1488:A2 0.00011564
8 *1488:B1 *61:18 0.000879809
9 *60:26 *1421:B 0
10 *60:26 *1426:B 9.25014e-06
11 *60:26 *1431:B1 0.000413936
12 *60:26 *1435:A 5.53052e-05
13 *60:26 *1517:A 0
14 *60:26 *78:22 0.00165341
15 *60:26 *88:24 0.00122021
16 *60:26 *136:73 0.000107807
17 *60:26 *141:24 1.01737e-05
18 *60:26 *196:95 0.000227038
19 *60:26 *204:46 0.000115084
20 *60:26 *205:42 0.000111243
21 *60:26 *209:106 0.000188425
22 *60:43 *1394:B 1.02936e-05
23 *60:43 *1517:A 0
24 *60:43 *1518:A1 0.0017106
25 *60:43 *1518:A2 9.30337e-05
26 *60:43 *1518:B1 0.000282134
27 *60:43 *78:22 0.000124457
28 *60:43 *88:24 0.000135772
29 *60:43 *135:57 0
30 *60:43 *149:61 0
31 *60:43 *149:63 0
32 *60:43 *225:103 0.00019099
33 *1487:A *60:26 0.000340477
34 *1488:A1 *1488:B1 1.21258e-05
35 *1488:A3 *1488:B1 0.00109139
36 *35:71 *60:26 0.000196913
37 *35:84 *60:26 0.000992759
38 *35:84 *60:43 0.000483999
*RES
1 *1487:Y *60:6 13.8 
2 *60:6 *60:26 43.3166 
3 *60:26 *1490:C1 9.3 
4 *60:6 *60:43 47.8214 
5 *60:43 *1488:B1 21.3536 
*END

*D_NET *61 0.0162948
*CONN
*I *1489:B I *D sky130_fd_sc_hd__nand2_1
*I *1488:X O *D sky130_fd_sc_hd__a31o_1
*CAP
1 *1489:B 0.000657853
2 *1488:X 0.00126857
3 *61:26 0.00250466
4 *61:18 0.00311537
5 *1489:B *182:12 0.00150292
6 *1489:B *213:32 0
7 *1489:B *214:10 0
8 *61:18 *1404:A 0.000370633
9 *61:18 *1438:A 0.000414942
10 *61:18 *1441:B 0.000327546
11 *61:18 *1488:A2 7.55804e-05
12 *61:18 *1518:B1 6.19281e-05
13 *61:18 *1547:A 5.20597e-05
14 *61:18 *1547:B 5.49995e-05
15 *61:18 *115:12 0.000180195
16 *61:18 *129:8 3.97677e-05
17 *61:18 *129:36 0
18 *61:18 *186:65 4.36243e-05
19 *61:26 *1385:A 5.49544e-05
20 *61:26 *1454:B 0.00051164
21 *61:26 *1454:C 2.12005e-05
22 *61:26 *115:12 0.00166018
23 *61:26 *129:8 0.000811201
24 *61:26 *198:12 1.65169e-05
25 *61:26 *209:85 6.24774e-05
26 *61:26 *209:106 0.000561154
27 *61:26 *224:31 0.000939219
28 out[2] *1489:B 1.21955e-05
29 *1488:B1 *61:18 0.000879809
30 *33:49 *61:18 9.15842e-06
31 *50:29 *1489:B 8.447e-05
*RES
1 *1488:X *61:18 45.0857 
2 *61:18 *61:26 42.0357 
3 *61:26 *1489:B 32.7464 
*END

*D_NET *62 0.0129214
*CONN
*I *1505:A1 I *D sky130_fd_sc_hd__a21o_1
*I *1489:Y O *D sky130_fd_sc_hd__nand2_1
*CAP
1 *1505:A1 0.00203387
2 *1489:Y 0.000308783
3 *62:12 0.00299619
4 *62:8 0.0012711
5 *1505:A1 *1446:A1 0.000544258
6 *1505:A1 *1514:A1 0
7 *1505:A1 *77:20 2.18438e-05
8 *1505:A1 *78:22 9.22508e-05
9 *1505:A1 *99:16 7.03346e-05
10 *1505:A1 *134:105 0
11 *62:12 *87:12 0.000869371
12 *62:12 *133:90 0.00167186
13 *62:12 *213:32 0.000517332
14 out[5] *1505:A1 3.48381e-05
15 *1489:A *62:8 0.000224575
16 *43:20 *62:12 0.00212848
17 *49:71 *1505:A1 0.000136347
*RES
1 *1489:Y *62:8 17.6214 
2 *62:8 *62:12 46.7939 
3 *62:12 *1505:A1 23.0874 
*END

*D_NET *63 0.0166661
*CONN
*I *1509:A2 I *D sky130_fd_sc_hd__o21ai_2
*I *1491:A_N I *D sky130_fd_sc_hd__and2b_1
*I *1510:C I *D sky130_fd_sc_hd__or3_4
*I *1490:Y O *D sky130_fd_sc_hd__a311oi_4
*CAP
1 *1509:A2 0.000772305
2 *1491:A_N 0.000572784
3 *1510:C 0.000214227
4 *1490:Y 0.000429489
5 *63:18 0.0017357
6 *63:10 0.00246078
7 *63:8 0.00116928
8 *1491:A_N *1521:B1 0.000203973
9 *1491:A_N *133:44 0.000193234
10 *1491:A_N *227:23 0
11 *1509:A2 *1408:B2 7.19848e-05
12 *1509:A2 *104:30 0
13 *1509:A2 *107:12 0
14 *1509:A2 *158:49 0.000304572
15 *1509:A2 *181:131 7.58841e-05
16 *1509:A2 *225:34 3.69697e-05
17 *1510:C *1531:A 0.000162443
18 *1510:C *1531:B 0
19 *1510:C *1532:A 0.000147474
20 *1510:C *97:20 1.08691e-05
21 *1510:C *133:44 3.34295e-05
22 *1510:C *225:34 5.58941e-05
23 *63:8 *1410:A3 0.000501758
24 *63:8 *1417:B 0.00114652
25 *63:8 *1426:B 9.71197e-05
26 *63:8 *99:8 0.00143361
27 *63:10 *1408:B2 0
28 *63:10 *1429:A 0.000174805
29 *63:10 *1521:A2 0.0010424
30 *63:10 *106:24 0.000100843
31 *63:10 *107:12 0.000174061
32 *63:10 *140:24 2.09607e-05
33 *63:10 *142:123 0
34 *63:10 *198:32 0.000336842
35 *63:10 *211:24 6.2589e-06
36 *63:18 *1526:A1 0.000505743
37 *63:18 *1526:B1 0.000182592
38 *63:18 *107:12 2.39923e-05
39 *63:18 *133:44 0.000397451
40 *63:18 *133:58 1.10868e-05
41 *63:18 *181:115 2.14757e-05
42 *63:18 *201:49 9.8856e-05
43 *1481:C1 *1510:C 0
44 *1491:B *1491:A_N 0.000498028
45 *1509:A1 *1509:A2 0.000326688
46 *1529:B *63:10 0.000357665
47 *53:38 *1491:A_N 0.000310955
48 *53:74 *1491:A_N 8.57023e-05
49 *57:10 *1491:A_N 6.79081e-05
50 *57:10 *1510:C 9.15065e-05
*RES
1 *1490:Y *63:8 29.9429 
2 *63:8 *63:10 20.6161 
3 *63:10 *63:18 26.9554 
4 *63:18 *1510:C 19.3893 
5 *63:18 *1491:A_N 26.7464 
6 *63:10 *1509:A2 30.9161 
*END

*D_NET *64 0.00987235
*CONN
*I *1505:A2 I *D sky130_fd_sc_hd__a21o_1
*I *1491:X O *D sky130_fd_sc_hd__and2b_1
*CAP
1 *1505:A2 0.000203106
2 *1491:X 0.00212512
3 *64:10 0.00232823
4 *1505:A2 *99:16 0.000417944
5 *1505:A2 *100:12 9.25014e-06
6 *1505:A2 *178:12 1.18064e-05
7 *64:10 *1521:A2 4.33423e-05
8 *64:10 *1521:B1 0.00265775
9 *64:10 *99:16 5.52238e-05
10 *64:10 *196:26 0.000909248
11 *64:10 *226:48 3.88986e-05
12 *1491:B *64:10 7.21765e-05
13 *1530:A *64:10 4.43256e-05
14 *49:71 *1505:A2 0.00020855
15 *53:74 *64:10 1.74903e-05
16 *57:10 *64:10 0.000729893
*RES
1 *1491:X *64:10 49.8179 
2 *64:10 *1505:A2 24.1929 
*END

*D_NET *65 0.00899731
*CONN
*I *1493:C I *D sky130_fd_sc_hd__nand3_2
*I *1494:B1 I *D sky130_fd_sc_hd__a21o_1
*I *1492:Y O *D sky130_fd_sc_hd__a21oi_1
*CAP
1 *1493:C 0.000309666
2 *1494:B1 0.00230287
3 *1492:Y 0.000363093
4 *65:12 0.00297563
5 *1493:C *1493:A 6.96878e-05
6 *1493:C *66:12 4.23644e-06
7 *1494:B1 *1411:A1 9.90367e-05
8 *1494:B1 *1411:B1 3.30237e-05
9 *1494:B1 *1493:A 0.000189352
10 *1494:B1 *1493:B 0.000285666
11 *1494:B1 *66:12 3.94624e-05
12 *1494:B1 *78:22 0.000202782
13 *1494:B1 *149:48 3.4621e-05
14 *1494:B1 *149:61 0.00180904
15 *65:12 *1399:A2 0.000197991
16 *65:12 *1492:A1 2.59355e-05
17 *65:12 *1518:A1 0
18 *65:12 *1581:A 0
19 *65:12 *142:170 0
20 *65:12 *182:8 5.52238e-05
*RES
1 *1492:Y *65:12 25.0321 
2 *65:12 *1494:B1 41.3714 
3 *65:12 *1493:C 13.4429 
*END

*D_NET *66 0.0287033
*CONN
*I *1511:B1 I *D sky130_fd_sc_hd__o21ai_1
*I *1495:A I *D sky130_fd_sc_hd__nand2_2
*I *1493:Y O *D sky130_fd_sc_hd__nand3_2
*CAP
1 *1511:B1 0
2 *1495:A 4.12433e-05
3 *1493:Y 0.00128166
4 *66:36 0.00149137
5 *66:34 0.00385959
6 *66:14 0.0029512
7 *66:12 0.00182339
8 *1495:A *1531:D_N 0.000271345
9 *66:12 *1411:A1 0.00108054
10 *66:12 *1428:A 0
11 *66:12 *1493:A 0.000168489
12 *66:12 *1518:A1 0
13 *66:12 *142:170 0
14 *66:14 *87:14 0.00249744
15 *66:34 *1471:A2 1.90936e-05
16 *66:34 *1511:A1 5.33005e-05
17 *66:34 *67:24 0.00257703
18 *66:34 *84:26 8.47371e-05
19 *66:34 *87:14 0.000177591
20 *66:34 *153:12 0.000183617
21 *66:34 *155:20 2.72231e-05
22 *66:34 *169:22 9.11825e-07
23 *66:34 *200:55 0.00102612
24 *66:34 *210:22 0.00013713
25 *66:36 *1422:B 0.000367743
26 *66:36 *69:14 0.00196358
27 *66:36 *95:30 0
28 *66:36 *164:54 0
29 *66:36 *173:10 0.00162007
30 *66:36 *173:37 1.24469e-05
31 *66:36 *190:24 0.000191337
32 *66:36 *200:24 0.000267814
33 *66:36 *200:55 0.00104485
34 *1471:A1 *66:34 2.06178e-05
35 *1493:C *66:12 4.23644e-06
36 *1494:B1 *66:12 3.94624e-05
37 *32:20 *66:36 0.000272233
38 *33:28 *66:36 0.000348901
39 *33:49 *66:34 0.000139076
40 *45:21 *66:14 0.00238467
41 *51:18 *1495:A 0.000273269
*RES
1 *1493:Y *66:12 40.7286 
2 *66:12 *66:14 24.3571 
3 *66:14 *66:34 26.8743 
4 *66:34 *66:36 45.8125 
5 *66:36 *1495:A 16.3893 
6 *66:14 *1511:B1 9.3 
*END

*D_NET *67 0.0210813
*CONN
*I *1495:B I *D sky130_fd_sc_hd__nand2_2
*I *1494:X O *D sky130_fd_sc_hd__a21o_1
*CAP
1 *1495:B 1.42885e-05
2 *1494:X 0.00554829
3 *67:24 0.00556257
4 *1495:B *1531:D_N 5.33005e-05
5 *67:24 *1404:A 0.000168219
6 *67:24 *1422:B 0.000224053
7 *67:24 *1438:A 0.000101989
8 *67:24 *1441:B 0.000129259
9 *67:24 *1471:A2 2.06178e-05
10 *67:24 *1518:A2 2.8266e-06
11 *67:24 *1518:C1 0.000155463
12 *67:24 *68:8 0.000761798
13 *67:24 *78:22 6.78364e-05
14 *67:24 *98:10 0.000452528
15 *67:24 *106:24 0.0021038
16 *67:24 *133:162 1.02504e-05
17 *67:24 *137:131 4.51076e-05
18 *67:24 *148:12 0.000146843
19 *67:24 *153:12 0.000124653
20 *67:24 *155:20 0
21 *67:24 *169:49 0
22 *67:24 *173:10 0
23 *67:24 *173:37 0.00160243
24 *67:24 *195:20 0.000121549
25 *67:24 *200:55 0.000280972
26 *67:24 *211:24 0.000193434
27 *1458:A1 *67:24 0.000135968
28 *30:10 *67:24 0.000103244
29 *33:49 *67:24 0.000317711
30 *51:18 *1495:B 5.52238e-05
31 *66:34 *67:24 0.00257703
*RES
1 *1494:X *67:24 48.2674 
2 *67:24 *1495:B 14.3357 
*END

*D_NET *68 0.0236528
*CONN
*I *1511:A1 I *D sky130_fd_sc_hd__o21ai_1
*I *1498:A I *D sky130_fd_sc_hd__nand2_1
*I *1497:A I *D sky130_fd_sc_hd__or2_1
*I *1495:Y O *D sky130_fd_sc_hd__nand2_2
*CAP
1 *1511:A1 0.00109632
2 *1498:A 0.000364594
3 *1497:A 0.000122358
4 *1495:Y 0
5 *68:16 0.00148193
6 *68:12 0.00231187
7 *68:8 0.00205869
8 *68:6 0.00183812
9 *1497:A *89:12 0.000193596
10 *1497:A *161:10 0.000195126
11 *1498:A *89:12 0.00107509
12 *1498:A *104:22 0.000173982
13 *1498:A *161:10 0.00106848
14 *1511:A1 *1511:A2 0.000736798
15 *1511:A1 *69:14 7.4573e-05
16 *1511:A1 *87:14 0.000319141
17 *1511:A1 *210:10 0.000342845
18 *1511:A1 *210:22 0.000103649
19 *68:8 *1432:A 7.1816e-05
20 *68:8 *98:10 0.00243526
21 *68:8 *145:28 7.60613e-05
22 *68:8 *153:12 1.3409e-05
23 *68:8 *173:10 0
24 *68:8 *174:24 0.000733853
25 *68:8 *195:20 0.000693233
26 *68:8 *199:16 0
27 *68:8 *211:24 0.00035468
28 *68:12 *1451:B 0.000373817
29 *68:16 *1419:C 0.000349458
30 *68:16 *1451:B 0.000347915
31 *68:16 *131:74 0.00109792
32 *68:16 *204:34 1.64621e-05
33 *31:28 *1497:A 3.31014e-05
34 *32:39 *1511:A1 0.000478047
35 *32:52 *1511:A1 0.000143845
36 *33:28 *68:8 0.000409978
37 *33:49 *68:8 0.00165166
38 *66:34 *1511:A1 5.33005e-05
39 *67:24 *68:8 0.000761798
*RES
1 *1495:Y *68:6 13.8 
2 *68:6 *68:8 56.8929 
3 *68:8 *68:12 8.32143 
4 *68:12 *68:16 22.2857 
5 *68:16 *1497:A 17.3 
6 *68:16 *1498:A 27.8893 
7 *68:12 *1511:A1 46.675 
*END

*D_NET *69 0.0204567
*CONN
*I *1511:A2 I *D sky130_fd_sc_hd__o21ai_1
*I *1498:B I *D sky130_fd_sc_hd__nand2_1
*I *1497:B I *D sky130_fd_sc_hd__or2_1
*I *1496:X O *D sky130_fd_sc_hd__a21o_1
*CAP
1 *1511:A2 0.00127571
2 *1498:B 0.000449392
3 *1497:B 9.39878e-05
4 *1496:X 0.000291152
5 *69:20 0.00111419
6 *69:14 0.00307636
7 *69:8 0.00152099
8 *1497:B *144:58 0.000340503
9 *1497:B *201:27 0.000338788
10 *1498:B *1424:B 0.000258117
11 *1498:B *1483:A 9.90431e-05
12 *1498:B *104:22 0.000231681
13 *1498:B *133:12 9.90431e-05
14 *1498:B *144:58 2.48938e-05
15 *1498:B *159:12 0
16 *1498:B *161:10 1.37292e-05
17 *1498:B *201:23 0.000190451
18 *1498:B *201:27 0.000382581
19 *1511:A2 *1409:D 0.000187818
20 *1511:A2 *1549:B2 0.0003882
21 *1511:A2 *87:14 0.000806956
22 *1511:A2 *112:10 5.93879e-05
23 *1511:A2 *230:41 1.94879e-05
24 *69:8 *1469:B 5.33005e-05
25 *69:8 *195:48 0.000349433
26 *69:14 *1409:D 0.000100549
27 *69:14 *1422:A_N 1.25776e-05
28 *69:14 *1422:B 0.000391804
29 *69:14 *156:39 0.000131166
30 *69:14 *181:8 0.000400856
31 *69:14 *181:70 0.000216297
32 *69:14 *195:12 3.6236e-05
33 *69:14 *209:50 0.00035593
34 *69:20 *1406:B 0.00185263
35 *69:20 *1520:A2 0.000968295
36 *1458:A1 *69:14 0.000584684
37 *1511:A1 *1511:A2 0.000736798
38 *1511:A1 *69:14 7.4573e-05
39 *32:20 *69:14 0.000166407
40 *32:39 *69:14 7.91312e-05
41 *33:28 *69:14 0.000719958
42 *66:36 *69:14 0.00196358
*RES
1 *1496:X *69:8 17.6214 
2 *69:8 *69:14 39.1429 
3 *69:14 *69:20 27.6071 
4 *69:20 *1497:B 18.175 
5 *69:20 *1498:B 27.0143 
6 *69:14 *1511:A2 40.675 
*END

*D_NET *70 0.008612
*CONN
*I *1504:A2 I *D sky130_fd_sc_hd__a31o_1
*I *1497:X O *D sky130_fd_sc_hd__or2_1
*CAP
1 *1504:A2 0.000957467
2 *1497:X 0.000853417
3 *70:14 0.00181088
4 *1504:A2 *1504:A3 4.7144e-05
5 *1504:A2 *1504:B1 0.000178279
6 *1504:A2 *77:20 1.98839e-05
7 *1504:A2 *122:20 0.000997079
8 *1504:A2 *130:89 1.24368e-05
9 *1504:A2 *138:16 9.82592e-05
10 *1504:A2 *139:12 1.3142e-05
11 *1504:A2 *225:70 0.00107817
12 *70:14 *89:12 0.000124019
13 *70:14 *104:22 0.000216341
14 *70:14 *157:16 0.000129429
15 *70:14 *161:10 0.000950847
16 *70:14 *164:23 0.000431475
17 *1467:B *1504:A2 0.000310513
18 *52:24 *1504:A2 0.000383214
*RES
1 *1497:X *70:14 40.9429 
2 *70:14 *1504:A2 42.8179 
*END

*D_NET *71 0.0132072
*CONN
*I *1504:A3 I *D sky130_fd_sc_hd__a31o_1
*I *1498:Y O *D sky130_fd_sc_hd__nand2_1
*CAP
1 *1504:A3 0.000336865
2 *1498:Y 0.000716419
3 *71:10 0.00199469
4 *71:8 0.00237424
5 *1504:A3 *77:20 1.03037e-05
6 *1504:A3 *130:89 4.16473e-05
7 *1504:A3 *206:66 0.000175892
8 *71:8 *1483:A 0.000238371
9 *71:8 *133:12 0.000180777
10 *71:10 *97:20 0.00206188
11 *71:10 *123:12 0.000692339
12 *71:10 *183:180 7.46707e-05
13 *71:10 *209:16 0
14 *71:10 *209:28 0.000402427
15 *71:10 *225:78 0.00239055
16 *71:10 *227:45 0.00016979
17 *1504:A2 *1504:A3 4.7144e-05
18 *1550:B1 *71:10 7.6644e-05
19 *53:32 *71:10 1.09026e-05
20 *56:50 *71:10 0.00121162
*RES
1 *1498:Y *71:8 22.55 
2 *71:8 *71:10 56.8929 
3 *71:10 *1504:A3 18.3536 
*END

*D_NET *72 0.0150065
*CONN
*I *1502:B1 I *D sky130_fd_sc_hd__a211o_1
*I *1501:B I *D sky130_fd_sc_hd__or3b_2
*I *1499:Y O *D sky130_fd_sc_hd__nor2_1
*CAP
1 *1502:B1 0
2 *1501:B 1.69729e-05
3 *1499:Y 0.00126108
4 *72:29 0.00118502
5 *72:12 0.00285572
6 *72:8 0.00291482
7 *1501:B *1553:A 2.19684e-05
8 *1501:B *213:26 5.83233e-05
9 *72:8 *1384:A 0.000474074
10 *72:8 *1499:A 0.000116761
11 *72:8 *1499:B 1.33343e-05
12 *72:12 *118:14 0.00023042
13 *72:12 *119:8 0.00134393
14 *72:29 *1407:B1 5.65899e-05
15 *72:29 *1473:A 0.000411389
16 *72:29 *1502:A1 3.37082e-05
17 *72:29 *1502:A2 0.000136676
18 *72:29 *1540:A3 0.000145347
19 *72:29 *1553:A 0.000309624
20 *72:29 *75:12 0.000219289
21 *72:29 *80:10 0.00042322
22 *72:29 *141:28 0.000785503
23 *72:29 *196:47 3.37139e-05
24 *72:29 *196:68 0.000179472
25 *72:29 *205:53 0.00127552
26 *72:29 *213:26 0.000450696
27 *1552:A *72:12 5.33334e-05
*RES
1 *1499:Y *72:8 29.9786 
2 *72:8 *72:12 36.6607 
3 *72:12 *1501:B 14.5321 
4 *72:12 *72:29 41.6429 
5 *72:29 *1502:B1 9.3 
*END

*D_NET *73 0.00884768
*CONN
*I *1502:A2 I *D sky130_fd_sc_hd__a211o_1
*I *1501:C_N I *D sky130_fd_sc_hd__or3b_2
*I *1500:Y O *D sky130_fd_sc_hd__nand2_1
*CAP
1 *1502:A2 0.000853899
2 *1501:C_N 0.00070668
3 *1500:Y 0.000227533
4 *73:6 0.00178811
5 *1501:C_N *1401:A1 1.07719e-05
6 *1501:C_N *1469:A 0.000437709
7 *1501:C_N *1477:A1 0.000775769
8 *1501:C_N *1553:B 0.000800512
9 *1501:C_N *74:28 0.00015862
10 *1501:C_N *196:47 0.000461626
11 *1501:C_N *206:66 1.96808e-05
12 *1502:A2 *1412:B 1.58163e-05
13 *1502:A2 *1426:C 0.000148196
14 *1502:A2 *136:100 1.18451e-05
15 *1502:A2 *136:108 0.000440608
16 *1502:A2 *142:112 5.43059e-05
17 *1502:A2 *153:39 1.08359e-05
18 *1502:A2 *183:22 0.000411475
19 *1502:A2 *200:34 0.000125724
20 *73:6 *206:66 2.26491e-05
21 *1486:A *1502:A2 0.000433343
22 *47:39 *1502:A2 0.000632656
23 *47:45 *1502:A2 0.000162639
24 *72:29 *1502:A2 0.000136676
*RES
1 *1500:Y *73:6 11.8893 
2 *73:6 *1501:C_N 37.5143 
3 *73:6 *1502:A2 43.0321 
*END

*D_NET *74 0.0200966
*CONN
*I *1503:B1 I *D sky130_fd_sc_hd__o211ai_2
*I *1501:X O *D sky130_fd_sc_hd__or3b_2
*CAP
1 *1503:B1 0.000173697
2 *1501:X 0.00715062
3 *74:28 0.00732432
4 *1503:B1 *75:18 0.000434473
5 *74:28 *1477:A1 0.000218792
6 *74:28 *1540:A3 9.6272e-05
7 *74:28 *1553:B 0.000186344
8 *74:28 *75:18 0.000121549
9 *74:28 *78:22 0
10 *74:28 *79:18 0.000164129
11 *74:28 *80:10 0.000160588
12 *74:28 *85:22 0.000442915
13 *74:28 *92:14 0
14 *74:28 *134:105 0
15 *74:28 *143:30 0.000183599
16 *74:28 *149:87 0.000261701
17 *74:28 *177:24 0
18 *74:28 *189:12 0.000116366
19 *74:28 *196:47 0.000171395
20 *74:28 *212:22 0.00130651
21 *74:28 *213:26 2.28904e-05
22 *1486:A *74:28 0.000120376
23 *1501:C_N *74:28 0.00015862
24 *45:33 *74:28 0.000294137
25 *47:20 *74:28 0.000156624
26 *49:28 *1503:B1 0.000438735
27 *49:55 *74:28 0.000267983
28 *59:8 *74:28 0.000124005
*RES
1 *1501:X *74:28 47.0716 
2 *74:28 *1503:B1 22.9511 
*END

*D_NET *75 0.010941
*CONN
*I *1503:C1 I *D sky130_fd_sc_hd__o211ai_2
*I *1502:X O *D sky130_fd_sc_hd__a211o_1
*CAP
1 *1503:C1 0
2 *1502:X 0.00100732
3 *75:18 0.00161298
4 *75:12 0.0026203
5 *75:12 *1502:A1 5.74499e-06
6 *75:12 *1502:C1 9.26121e-05
7 *75:12 *108:18 7.55331e-05
8 *75:12 *193:56 0.0005474
9 *75:18 *76:16 0.00127952
10 *75:18 *114:10 0
11 *75:18 *119:10 0.000977083
12 *75:18 *168:18 0.00161935
13 *75:18 *183:70 5.49544e-05
14 *75:18 *186:18 0
15 *75:18 *215:16 2.36643e-05
16 *1503:B1 *75:18 0.000434473
17 *37:31 *75:18 0
18 *49:28 *75:18 0.000249268
19 *72:29 *75:12 0.000219289
20 *74:28 *75:18 0.000121549
*RES
1 *1502:X *75:12 28.8536 
2 *75:12 *75:18 47.4643 
3 *75:18 *1503:C1 9.3 
*END

*D_NET *76 0.0161337
*CONN
*I *1504:B1 I *D sky130_fd_sc_hd__a31o_1
*I *1503:Y O *D sky130_fd_sc_hd__o211ai_2
*CAP
1 *1504:B1 0.000283885
2 *1503:Y 0.00471488
3 *76:16 0.00499876
4 *1504:B1 *1447:C1 3.95014e-05
5 *1504:B1 *122:20 8.58455e-05
6 *1504:B1 *206:58 4.36989e-05
7 *1504:B1 *225:70 1.12669e-05
8 *76:16 *82:24 0.00318053
9 *76:16 *84:26 2.04745e-05
10 *76:16 *123:12 0.000181799
11 *76:16 *150:14 0
12 *76:16 *167:24 0.000131465
13 *76:16 *186:18 0
14 *76:16 *222:45 0.00045227
15 *76:16 *225:78 0.000370307
16 *1504:A2 *1504:B1 0.000178279
17 *49:28 *76:16 0
18 *53:28 *76:16 0.000152265
19 *53:32 *1504:B1 8.91963e-06
20 *75:18 *76:16 0.00127952
*RES
1 *1503:Y *76:16 48.5426 
2 *76:16 *1504:B1 23.6246 
*END

*D_NET *77 0.00918003
*CONN
*I *1505:B1 I *D sky130_fd_sc_hd__a21o_1
*I *1504:X O *D sky130_fd_sc_hd__a31o_1
*CAP
1 *1505:B1 1.58048e-05
2 *1504:X 0.00258946
3 *77:20 0.00260527
4 *1505:B1 *204:46 2.24106e-05
5 *77:20 *1446:A1 4.38936e-05
6 *77:20 *1514:A1 0.000289548
7 *77:20 *113:16 0.000155515
8 *77:20 *119:10 0.000154392
9 *77:20 *130:87 1.52217e-05
10 *77:20 *130:89 0.000183477
11 *77:20 *145:22 0.000716652
12 *77:20 *183:180 0.00134636
13 *77:20 *195:48 0.000307165
14 *77:20 *206:66 8.01889e-06
15 *1461:A_N *77:20 0.000630075
16 *1504:A2 *77:20 1.98839e-05
17 *1504:A3 *77:20 1.03037e-05
18 *1505:A1 *77:20 2.18438e-05
19 *49:71 *1505:B1 4.47378e-05
*RES
1 *1504:X *77:20 48.2832 
2 *77:20 *1505:B1 17.7904 
*END

*D_NET *78 0.0262601
*CONN
*I *1508:A I *D sky130_fd_sc_hd__xor2_2
*I *1514:B1 I *D sky130_fd_sc_hd__o221a_1
*I *1506:Y O *D sky130_fd_sc_hd__xnor2_4
*CAP
1 *1508:A 5.98158e-06
2 *1514:B1 0.000589803
3 *1506:Y 0.00766199
4 *78:22 0.00825778
5 *1514:B1 *1387:A 0.00013519
6 *1514:B1 *1514:B2 2.25101e-05
7 *78:22 *1446:A1 8.03262e-05
8 *78:22 *1448:A 0.00015158
9 *78:22 *1506:B 0
10 *78:22 *1518:C1 0
11 *78:22 *1540:A3 0.00258655
12 *78:22 *1540:B1 0.00028068
13 *78:22 *88:24 0
14 *78:22 *131:60 0.000176806
15 *78:22 *149:61 0.00029213
16 *78:22 *149:67 0.000135968
17 *78:22 *155:20 0.000114697
18 *78:22 *166:16 0.000314444
19 *78:22 *177:24 0.000262025
20 *78:22 *212:22 0.00156546
21 *1494:B1 *78:22 0.000202782
22 *1505:A1 *78:22 9.22508e-05
23 *45:33 *1508:A 1.1594e-05
24 *45:33 *1514:B1 0.000529686
25 *46:10 *78:22 0.000340492
26 *47:39 *1508:A 2.06178e-05
27 *47:39 *1514:B1 0.000583038
28 *60:26 *78:22 0.00165341
29 *60:43 *78:22 0.000124457
30 *67:24 *78:22 6.78364e-05
31 *74:28 *78:22 0
*RES
1 *1506:Y *78:22 47.9578 
2 *78:22 *1514:B1 27.8804 
3 *78:22 *1508:A 14.0768 
*END

*D_NET *79 0.015278
*CONN
*I *1508:B I *D sky130_fd_sc_hd__xor2_2
*I *1507:X O *D sky130_fd_sc_hd__o21a_1
*CAP
1 *1508:B 0
2 *1507:X 0.00197445
3 *79:18 0.0028275
4 *79:12 0.00480195
5 *79:12 *1507:B1 0.00026432
6 *79:12 *164:54 0.000135028
7 *79:12 *192:32 0.00144933
8 *79:18 *136:100 2.79421e-05
9 *79:18 *143:30 0.000994976
10 *79:18 *151:22 0.000997405
11 *79:18 *153:39 4.66279e-05
12 *79:18 *186:26 0.000311121
13 *79:18 *192:32 0.00128325
14 *74:28 *79:18 0.000164129
*RES
1 *1507:X *79:12 36.2821 
2 *79:12 *79:18 48.3036 
3 *79:18 *1508:B 4.5 
*END

*D_NET *80 0.0132256
*CONN
*I *1509:B1 I *D sky130_fd_sc_hd__o21ai_2
*I *1510:B I *D sky130_fd_sc_hd__or3_4
*I *1508:X O *D sky130_fd_sc_hd__xor2_2
*CAP
1 *1509:B1 0.000352452
2 *1510:B 0.000371271
3 *1508:X 0.000526743
4 *80:14 0.00155573
5 *80:10 0.00135875
6 *1509:B1 *81:20 2.4815e-05
7 *1509:B1 *107:12 0.000611962
8 *1510:B *225:34 0.00182459
9 *80:10 *1407:B1 5.4923e-05
10 *80:10 *141:28 0.000142577
11 *80:10 *196:47 0.000344952
12 *80:10 *213:26 0.000216304
13 *80:14 *1393:A 0.000906839
14 *80:14 *225:34 1.38323e-05
15 *1474:B *1510:B 4.59075e-05
16 *1509:A1 *1509:B1 0.00043034
17 *47:20 *80:10 0.000700173
18 *57:27 *1510:B 0.000916606
19 *57:27 *80:14 5.52238e-05
20 *57:46 *80:14 0.00218779
21 *72:29 *80:10 0.00042322
22 *74:28 *80:10 0.000160588
*RES
1 *1508:X *80:10 34.8179 
2 *80:10 *80:14 21.9107 
3 *80:14 *1510:B 26.675 
4 *80:14 *1509:B1 28.4429 
*END

*D_NET *81 0.0262277
*CONN
*I *1516:A2 I *D sky130_fd_sc_hd__a31o_4
*I *1509:Y O *D sky130_fd_sc_hd__o21ai_2
*CAP
1 *1516:A2 0.00324791
2 *1509:Y 0.00206762
3 *81:20 0.00531553
4 *1516:A2 *1424:A 0.000103935
5 *1516:A2 *1424:C 4.62446e-05
6 *1516:A2 *82:24 0.0068443
7 *1516:A2 *122:20 0.000215432
8 *1516:A2 *138:16 0.000432645
9 *1516:A2 *139:12 0.000151733
10 *1516:A2 *167:34 1.03236e-05
11 *1516:A2 *209:16 0.000234866
12 *1516:A2 *229:47 0
13 *81:20 *1433:B1 0.000164886
14 *81:20 *1455:B1 0.000481512
15 *81:20 *1514:A1 0.00191543
16 *81:20 *106:24 0.000107162
17 *81:20 *107:12 0.000467456
18 *81:20 *131:31 0.000241205
19 *81:20 *199:16 0.00058393
20 *1461:A_N *81:20 0.000137669
21 *1467:B *1516:A2 0.000159951
22 *1509:B1 *81:20 2.4815e-05
23 *52:24 *1516:A2 0.0025344
24 *53:28 *1516:A2 0.000738741
*RES
1 *1509:Y *81:20 45.4756 
2 *81:20 *1516:A2 35.884 
*END

*D_NET *82 0.0201608
*CONN
*I *1516:A3 I *D sky130_fd_sc_hd__a31o_4
*I *1510:X O *D sky130_fd_sc_hd__or3_4
*CAP
1 *1516:A3 0
2 *1510:X 0.00398646
3 *82:24 0.00398646
4 *82:24 *1424:C 1.04473e-05
5 *82:24 *1531:A 9.34324e-05
6 *82:24 *109:10 0.000234866
7 *82:24 *111:24 0.000143882
8 *82:24 *130:99 3.91827e-05
9 *82:24 *169:49 2.41653e-05
10 *82:24 *193:8 0.000125441
11 *82:24 *207:23 3.48601e-05
12 *82:24 *208:14 0.000217105
13 *82:24 *219:30 0.000302511
14 *82:24 *225:78 0.000171395
15 *82:24 *227:23 0.000393999
16 *1516:A2 *82:24 0.0068443
17 *52:24 *82:24 0.00019247
18 *53:32 *82:24 0.000179254
19 *76:16 *82:24 0.00318053
*RES
1 *1510:X *82:24 49.2585 
2 *82:24 *1516:A3 13.8 
*END

*D_NET *83 0.0150009
*CONN
*I *1515:A2 I *D sky130_fd_sc_hd__a21bo_1
*I *1511:Y O *D sky130_fd_sc_hd__o21ai_1
*CAP
1 *1515:A2 0.000994651
2 *1511:Y 0.00246554
3 *83:8 0.00346019
4 *1515:A2 *1439:A 0.000180626
5 *1515:A2 *1445:B1 0.000166093
6 *1515:A2 *1515:B1_N 3.34366e-05
7 *1515:A2 *1584:A 0.00173932
8 *1515:A2 *182:12 0.00212955
9 *83:8 *87:14 0.00353214
10 *1485:B *1515:A2 0.000103033
11 *58:16 *1515:A2 0.000196367
*RES
1 *1511:Y *83:8 48.0143 
2 *83:8 *1515:A2 49.9696 
*END

*D_NET *84 0.0223021
*CONN
*I *1513:B1 I *D sky130_fd_sc_hd__a31oi_2
*I *1512:X O *D sky130_fd_sc_hd__o21a_1
*CAP
1 *1513:B1 0.000506356
2 *1512:X 0.00650839
3 *84:26 0.00701474
4 *1513:B1 *181:70 0.001729
5 *84:26 *1450:A1 1.78098e-05
6 *84:26 *1512:A2 0.00464533
7 *84:26 *1512:B1 5.50052e-05
8 *84:26 *167:24 9.09604e-05
9 *84:26 *179:40 0.000188218
10 *1487:A *84:26 0
11 *55:31 *84:26 0.0005577
12 *56:50 *84:26 0
13 *56:56 *1513:B1 0.000794951
14 *56:71 *1513:B1 8.84129e-05
15 *66:34 *84:26 8.47371e-05
16 *76:16 *84:26 2.04745e-05
*RES
1 *1512:X *84:26 49.8713 
2 *84:26 *1513:B1 30.7643 
*END

*D_NET *85 0.0206626
*CONN
*I *1514:C1 I *D sky130_fd_sc_hd__o221a_1
*I *1513:Y O *D sky130_fd_sc_hd__a31oi_2
*CAP
1 *1514:C1 1.21101e-05
2 *1513:Y 0.00831922
3 *85:22 0.00833133
4 *1514:C1 *134:105 2.11419e-05
5 *85:22 *1514:A1 0.000217389
6 *85:22 *120:33 0.000289889
7 *85:22 *131:76 0.000139083
8 *85:22 *134:105 0.00110236
9 *85:22 *149:87 3.08644e-05
10 *85:22 *159:12 0.000564411
11 *85:22 *163:33 9.41642e-05
12 *85:22 *181:70 0.000304394
13 *49:55 *85:22 0
14 *52:24 *85:22 0.000793288
15 *53:28 *85:22 0
16 *74:28 *85:22 0.000442915
*RES
1 *1513:Y *85:22 49.8491 
2 *85:22 *1514:C1 17.4868 
*END

*D_NET *86 0.00515209
*CONN
*I *1515:B1_N I *D sky130_fd_sc_hd__a21bo_1
*I *1514:X O *D sky130_fd_sc_hd__o221a_1
*CAP
1 *1515:B1_N 0.00117633
2 *1514:X 8.16568e-05
3 *86:8 0.00125799
4 *1515:B1_N *1439:A 0.000415508
5 *1515:B1_N *1445:B1 0.000289011
6 *1515:B1_N *1514:A2 0.00019647
7 *1515:B1_N *1585:A 0.000340004
8 *1515:B1_N *183:131 0.000155886
9 *1515:B1_N *188:61 0.000779696
10 out[5] *1515:B1_N 4.29654e-05
11 *1515:A2 *1515:B1_N 3.34366e-05
12 *43:16 *1515:B1_N 0.00038313
13 *50:29 *1515:B1_N 0
*RES
1 *1514:X *86:8 14.7464 
2 *86:8 *1515:B1_N 49.4429 
*END

*D_NET *87 0.020761
*CONN
*I *1516:B1 I *D sky130_fd_sc_hd__a31o_4
*I *1515:X O *D sky130_fd_sc_hd__a21bo_1
*CAP
1 *1516:B1 3.64069e-05
2 *1515:X 0.000506063
3 *87:14 0.00289059
4 *87:12 0.00360724
5 *87:8 0.00125912
6 *87:8 *1485:A 0.00043902
7 *87:12 *213:32 0.00260258
8 *87:14 *160:16 7.02261e-05
9 *87:14 *162:14 0.000139337
10 *1511:A1 *87:14 0.000319141
11 *1511:A2 *87:14 0.000806956
12 *1516:A1 *87:14 0.000498994
13 *43:20 *87:12 0.000508765
14 *62:12 *87:12 0.000869371
15 *66:14 *87:14 0.00249744
16 *66:34 *87:14 0.000177591
17 *83:8 *87:14 0.00353214
*RES
1 *1515:X *87:8 20.0857 
2 *87:8 *87:12 37.4107 
3 *87:12 *87:14 69.125 
4 *87:14 *1516:B1 10.0321 
*END

*D_NET *88 0.0206354
*CONN
*I *1521:A3 I *D sky130_fd_sc_hd__a31o_1
*I *1517:X O *D sky130_fd_sc_hd__or2_1
*CAP
1 *1521:A3 0
2 *1517:X 0.00610689
3 *88:24 0.00610689
4 *88:24 *1514:A1 0.0011558
5 *88:24 *1517:A 0.000159985
6 *88:24 *99:16 0.000190344
7 *88:24 *118:14 0.000319421
8 *88:24 *135:51 0.00010283
9 *88:24 *146:12 0.000168046
10 *88:24 *155:20 4.98422e-05
11 *88:24 *158:43 0.000153702
12 *88:24 *169:22 0.000111243
13 *88:24 *173:37 0.000215032
14 *88:24 *176:28 0.000135852
15 *88:24 *177:24 0.000628226
16 *88:24 *178:12 0.000176806
17 *88:24 *211:24 0.000233734
18 *88:24 *226:48 0.00013278
19 *1487:A *88:24 0.00288797
20 *35:84 *88:24 0.000243993
21 *60:26 *88:24 0.00122021
22 *60:43 *88:24 0.000135772
23 *78:22 *88:24 0
*RES
1 *1517:X *88:24 46.3903 
2 *88:24 *1521:A3 13.8 
*END

*D_NET *89 0.0132402
*CONN
*I *1519:B1 I *D sky130_fd_sc_hd__a31o_1
*I *1518:Y O *D sky130_fd_sc_hd__o211ai_2
*CAP
1 *1519:B1 0.000211235
2 *1518:Y 0.00138018
3 *89:12 0.00194446
4 *89:8 0.00311341
5 *1519:B1 *1519:A1 0.000857574
6 *1519:B1 *1519:A2 1.98839e-05
7 *1519:B1 *1519:A3 0.000684646
8 *89:8 *1394:B 0.000752659
9 *89:8 *208:10 0.000579061
10 *89:12 *1395:A1 0.000356623
11 *89:12 *1424:A 0.000258379
12 *89:12 *1424:B 0
13 *89:12 *1523:A2 0
14 *89:12 *1535:A1 0.000185617
15 *89:12 *104:22 0.00019662
16 *89:12 *133:137 0
17 *89:12 *133:146 0
18 *89:12 *161:10 0.000331826
19 *89:12 *164:23 0.000798057
20 *89:12 *188:96 0.000177307
21 *1497:A *89:12 0.000193596
22 *1498:A *89:12 0.00107509
23 *70:14 *89:12 0.000124019
*RES
1 *1518:Y *89:8 33.6393 
2 *89:8 *89:12 48.9464 
3 *89:12 *1519:B1 17.2286 
*END

*D_NET *90 0.00170255
*CONN
*I *1520:B1 I *D sky130_fd_sc_hd__o21ai_2
*I *1519:X O *D sky130_fd_sc_hd__a31o_1
*CAP
1 *1520:B1 0.000226341
2 *1519:X 0.000226341
3 *1520:B1 *1519:A1 9.58689e-05
4 *1520:B1 *91:14 0.000455907
5 *1520:B1 *111:24 0.00013415
6 *1520:B1 *162:27 3.69863e-05
7 *1520:B1 *163:14 0.000526962
*RES
1 *1519:X *1520:B1 35.35 
*END

*D_NET *91 0.0170308
*CONN
*I *1521:B1 I *D sky130_fd_sc_hd__a31o_1
*I *1520:Y O *D sky130_fd_sc_hd__o21ai_2
*CAP
1 *1521:B1 0.000787258
2 *1520:Y 0.000448296
3 *91:22 0.00192101
4 *91:14 0.00158205
5 *1521:B1 *1400:C 9.91484e-05
6 *1521:B1 *1521:A2 0.000185643
7 *1521:B1 *103:12 0.000162229
8 *1521:B1 *211:24 0.000263634
9 *91:14 *147:25 0.000219987
10 *91:14 *156:39 0.000143228
11 *91:14 *162:27 0.000903393
12 *91:14 *163:14 0.000231035
13 *91:14 *229:47 0.000202832
14 *91:22 *1417:A_N 0.000144038
15 *91:22 *103:12 0.000159637
16 *91:22 *104:22 0.000622761
17 *91:22 *144:28 0.000224505
18 *91:22 *161:10 0.00161491
19 *91:22 *170:24 0.00104889
20 *91:22 *201:27 0.00143274
21 *91:22 *201:33 0.000121539
22 *91:22 *227:45 0.000401385
23 *1491:A_N *1521:B1 0.000203973
24 *1491:B *1521:B1 0.000348207
25 *1520:B1 *91:14 0.000455907
26 *53:74 *1521:B1 0.000444882
27 *64:10 *1521:B1 0.00265775
*RES
1 *1520:Y *91:14 38.6929 
2 *91:14 *91:22 48.3393 
3 *91:22 *1521:B1 43.7643 
*END

*D_NET *92 0.0367213
*CONN
*I *1523:B2 I *D sky130_fd_sc_hd__o22a_1
*I *1522:Y O *D sky130_fd_sc_hd__a21oi_2
*CAP
1 *1523:B2 0.00695064
2 *1522:Y 0.00617012
3 *92:14 0.0131208
4 *1523:B2 *1413:A2 0.000392324
5 *1523:B2 *1523:B1 2.11419e-05
6 *1523:B2 *93:20 0.00741505
7 *92:14 *1522:B1 5.7903e-06
8 *92:14 *106:24 0.00175496
9 *92:14 *111:24 4.73953e-05
10 *92:14 *177:24 0
11 *92:14 *181:131 0.000109862
12 *92:14 *199:16 0.000126381
13 *92:14 *220:34 0.00012864
14 *50:10 *92:14 6.27272e-06
15 *56:62 *1523:B2 0.000471959
16 *74:28 *92:14 0
*RES
1 *1522:Y *92:14 33.4474 
2 *92:14 *1523:B2 39.6764 
*END

*D_NET *93 0.0247669
*CONN
*I *1531:A I *D sky130_fd_sc_hd__or4b_1
*I *1523:X O *D sky130_fd_sc_hd__o22a_1
*CAP
1 *1531:A 0.00160417
2 *1523:X 0.00443859
3 *93:20 0.00604276
4 *1531:A *1514:A1 0
5 *1531:A *97:20 0.000162443
6 *1531:A *169:49 0.00020615
7 *1531:A *219:22 0.00140484
8 *1531:A *229:14 0
9 *93:20 *1388:B 0.000574812
10 *93:20 *1523:A2 8.15476e-05
11 *93:20 *131:125 0.000264774
12 *93:20 *203:31 0.00079228
13 *93:20 *205:12 0.000250931
14 *93:20 *206:16 0.000255973
15 *93:20 *206:87 0.000490517
16 *93:20 *208:10 1.61807e-05
17 *1480:B *1531:A 5.00194e-05
18 *1510:C *1531:A 0.000162443
19 *1523:B2 *93:20 0.00741505
20 *1570:A *93:20 0
21 *39:28 *93:20 0.000459952
22 *82:24 *1531:A 9.34324e-05
*RES
1 *1523:X *93:20 46.4914 
2 *93:20 *1531:A 23.427 
*END

*D_NET *94 0.00723509
*CONN
*I *1525:C I *D sky130_fd_sc_hd__and3b_1
*I *1524:X O *D sky130_fd_sc_hd__a22o_1
*CAP
1 *1525:C 0.000433629
2 *1524:X 0.00176812
3 *94:10 0.00220175
4 *1525:C *1525:B 7.69776e-06
5 *1525:C *220:16 0.00063208
6 *94:10 *1437:A 0.000104528
7 *94:10 *1524:A2 1.80232e-05
8 *94:10 *132:14 0.000155273
9 *94:10 *137:55 0.000402798
10 *94:10 *188:69 0.000219289
11 *94:10 *188:77 0.000472142
12 *94:10 *209:50 0.00018067
13 *94:10 *210:52 0.000142963
14 *1459:B *94:10 0.000397789
15 *1485:B *1525:C 9.83442e-05
16 *35:63 *1525:C 0
*RES
1 *1524:X *94:10 45.5679 
2 *94:10 *1525:C 23.0679 
*END

*D_NET *95 0.0142487
*CONN
*I *1526:B1 I *D sky130_fd_sc_hd__a31o_1
*I *1525:X O *D sky130_fd_sc_hd__and3b_1
*CAP
1 *1526:B1 3.38686e-05
2 *1525:X 0.00208353
3 *95:30 0.00112168
4 *95:14 0.00317134
5 *1526:B1 *1526:A1 0.000184522
6 *95:14 *1437:B 0.000236243
7 *95:14 *112:10 0.000387438
8 *95:14 *163:33 0.00201246
9 *95:14 *164:54 8.07951e-05
10 *95:14 *180:23 0.000279299
11 *95:14 *209:50 0.00011608
12 *95:14 *210:32 0.000488319
13 *95:14 *222:37 0
14 *95:30 *1417:A_N 0.000175892
15 *95:30 *1422:A_N 0.000997482
16 *95:30 *1481:A2 0.00176316
17 *95:30 *112:10 0.000163015
18 *95:30 *164:54 0.000121573
19 *95:30 *169:49 0.000164145
20 *95:30 *195:48 0.00032559
21 *33:28 *95:30 2.16719e-05
22 *55:14 *95:30 0.000137983
23 *63:18 *1526:B1 0.000182592
24 *66:36 *95:30 0
*RES
1 *1525:X *95:14 48.9964 
2 *95:14 *95:30 47.1786 
3 *95:30 *1526:B1 15.5679 
*END

*D_NET *96 0.000561731
*CONN
*I *1531:B I *D sky130_fd_sc_hd__or4b_1
*I *1526:X O *D sky130_fd_sc_hd__a31o_1
*CAP
1 *1531:B 0.000179727
2 *1526:X 0.000179727
3 *1531:B *1384:A 4.85291e-05
4 *1531:B *97:20 4.04221e-05
5 *1531:B *201:49 9.83442e-05
6 *1481:C1 *1531:B 1.49807e-05
7 *1510:C *1531:B 0
*RES
1 *1526:X *1531:B 31.1 
*END

*D_NET *97 0.0155928
*CONN
*I *1531:C I *D sky130_fd_sc_hd__or4b_1
*I *1527:Y O *D sky130_fd_sc_hd__nor2_1
*CAP
1 *1531:C 0
2 *1527:Y 0.00110215
3 *97:20 0.00166976
4 *97:16 0.00326462
5 *97:12 0.00269701
6 *97:12 *131:62 0.000513597
7 *97:12 *176:18 0.00100091
8 *97:12 *197:37 0.00100244
9 *97:12 *198:32 0.000116155
10 *97:16 *1436:A 0.000228514
11 *97:16 *135:36 0.000442147
12 *97:16 *180:8 5.33005e-05
13 *97:16 *209:28 0.000132248
14 *97:20 *1384:A 0
15 *97:20 *130:87 0
16 *97:20 *133:38 0.00027303
17 *97:20 *133:44 0.000752913
18 *97:20 *179:40 0
19 *97:20 *209:28 5.71124e-05
20 *97:20 *210:52 0
21 *97:20 *227:45 1.13072e-05
22 *1510:C *97:20 1.08691e-05
23 *1531:A *97:20 0.000162443
24 *1531:B *97:20 4.04221e-05
25 *71:10 *97:20 0.00206188
*RES
1 *1527:Y *97:12 41.05 
2 *97:12 *97:16 23.5179 
3 *97:16 *97:20 44.0893 
4 *97:20 *1531:C 9.3 
*END

*D_NET *98 0.00928652
*CONN
*I *1529:A I *D sky130_fd_sc_hd__nor2_1
*I *1528:X O *D sky130_fd_sc_hd__and2b_1
*CAP
1 *1529:A 0
2 *1528:X 0.000110711
3 *98:10 0.0017517
4 *98:8 0.00186241
5 *98:8 *1547:A 9.58126e-05
6 *98:8 *186:65 2.54558e-06
7 *98:10 *1386:B 0.00024569
8 *98:10 *1441:B 0.000507502
9 *98:10 *1547:B 0.000124012
10 *98:10 *106:24 6.71336e-05
11 *98:10 *129:10 1.73789e-05
12 *98:10 *130:33 7.2754e-05
13 *98:10 *145:28 0.0010421
14 *98:10 *148:12 0.000129427
15 *98:10 *150:14 4.34472e-05
16 *98:10 *175:26 0
17 *33:49 *98:8 2.51343e-06
18 *33:49 *98:10 0.000323599
19 *67:24 *98:10 0.000452528
20 *68:8 *98:10 0.00243526
*RES
1 *1528:X *98:8 15.1571 
2 *98:8 *98:10 50.2143 
3 *98:10 *1529:A 13.8 
*END

*D_NET *99 0.0119761
*CONN
*I *1530:B I *D sky130_fd_sc_hd__or3b_1
*I *1529:Y O *D sky130_fd_sc_hd__nor2_1
*CAP
1 *1530:B 0
2 *1529:Y 0.00133376
3 *99:16 0.000974518
4 *99:8 0.00230827
5 *99:8 *1417:B 0.000139187
6 *99:16 *1435:A 5.11653e-05
7 *99:16 *100:12 0.00154237
8 *99:16 *178:12 0.00146877
9 *1505:A1 *99:16 7.03346e-05
10 *1505:A2 *99:16 0.000417944
11 *1530:A *99:16 0.00171278
12 *49:71 *99:16 0.000277809
13 *63:8 *99:8 0.00143361
14 *64:10 *99:16 5.52238e-05
15 *88:24 *99:16 0.000190344
*RES
1 *1529:Y *99:8 30.7643 
2 *99:8 *99:16 40.7321 
3 *99:16 *1530:B 9.3 
*END

*D_NET *100 0.0105114
*CONN
*I *1531:D_N I *D sky130_fd_sc_hd__or4b_1
*I *1530:X O *D sky130_fd_sc_hd__or3b_1
*CAP
1 *1531:D_N 0.000904925
2 *1530:X 0.00119771
3 *100:12 0.00210263
4 *1531:D_N *133:58 0.00167393
5 *100:12 *135:18 0.000103285
6 *100:12 *178:12 3.46786e-05
7 *1495:A *1531:D_N 0.000271345
8 *1495:B *1531:D_N 5.33005e-05
9 *1505:A2 *100:12 9.25014e-06
10 *49:71 *100:12 0.000315887
11 *51:18 *1531:D_N 0.00230204
12 *99:16 *100:12 0.00154237
*RES
1 *1530:X *100:12 37.2821 
2 *100:12 *1531:D_N 48.675 
*END

*D_NET *101 0.00264126
*CONN
*I *1532:A I *D sky130_fd_sc_hd__dlymetal6s2s_1
*I *1531:X O *D sky130_fd_sc_hd__or4b_1
*CAP
1 *1532:A 0.000809454
2 *1531:X 0.000809454
3 *1532:A *1543:B 0.000793052
4 *1532:A *181:131 0
5 *1532:A *219:30 0
6 *1481:C1 *1532:A 0
7 *1510:A *1532:A 4.25427e-05
8 *1510:C *1532:A 0.000147474
9 *57:10 *1532:A 3.92854e-05
*RES
1 *1531:X *1532:A 45.0821 
*END

*D_NET *102 0.0234659
*CONN
*I *1540:A3 I *D sky130_fd_sc_hd__a31o_1
*I *1533:X O *D sky130_fd_sc_hd__or3_2
*CAP
1 *1540:A3 0.0051383
2 *1533:X 0.00183408
3 *102:12 0.00697238
4 *1540:A3 *1403:B 0.000146512
5 *1540:A3 *1473:A 9.52066e-05
6 *1540:A3 *136:92 0.000110498
7 *1540:A3 *141:28 0.000134326
8 *1540:A3 *192:28 0.000110498
9 *1540:A3 *194:18 0.000103262
10 *1540:A3 *205:53 0.000240508
11 *102:12 *1438:A 3.97677e-05
12 *102:12 *1492:B1 0.000391174
13 *102:12 *1518:B1 9.71197e-05
14 *102:12 *196:114 0.00119905
15 *102:12 *201:84 0
16 *102:12 *212:22 0.000266848
17 *1487:A *1540:A3 2.76972e-05
18 *1540:A2 *1540:A3 1.00887e-05
19 *37:31 *102:12 0.000821758
20 *46:10 *1540:A3 0.000173129
21 *49:55 *1540:A3 0.00272553
22 *72:29 *1540:A3 0.000145347
23 *74:28 *1540:A3 9.6272e-05
24 *78:22 *1540:A3 0.00258655
*RES
1 *1533:X *102:12 48.2904 
2 *102:12 *1540:A3 42.3803 
*END

*D_NET *103 0.0112937
*CONN
*I *1539:A2 I *D sky130_fd_sc_hd__o21bai_1
*I *1534:Y O *D sky130_fd_sc_hd__o21ai_1
*CAP
1 *1539:A2 0.000562923
2 *1534:Y 0.000272145
3 *103:12 0.001968
4 *103:8 0.00167722
5 *1539:A2 *1539:A1 9.41642e-05
6 *1539:A2 *108:18 5.7661e-06
7 *1539:A2 *164:38 0.00143974
8 *1539:A2 *193:18 0.000721426
9 *1539:A2 *222:37 0.000397304
10 *103:8 *1534:A1 2.28499e-05
11 *103:8 *1534:A2 0.000179469
12 *103:8 *1534:B1 0.000609226
13 *103:12 *1400:C 0
14 *103:12 *1447:B1 0.000493698
15 *103:12 *1556:A1 0.000239634
16 *103:12 *104:22 0.000228549
17 *103:12 *128:8 0
18 *103:12 *164:23 2.31791e-05
19 *103:12 *169:49 0.000885196
20 *103:12 *170:24 0
21 *103:12 *225:14 0
22 *103:12 *225:34 0
23 *103:12 *227:45 0.00111459
24 *1507:A2 *1539:A2 1.21258e-05
25 *1521:B1 *103:12 0.000162229
26 *55:14 *1539:A2 2.46341e-05
27 *91:22 *103:12 0.000159637
*RES
1 *1534:Y *103:8 20.0857 
2 *103:8 *103:12 41.0536 
3 *103:12 *1539:A2 25.7018 
*END

*D_NET *104 0.0304484
*CONN
*I *1536:B2 I *D sky130_fd_sc_hd__o22a_1
*I *1535:Y O *D sky130_fd_sc_hd__a21oi_2
*CAP
1 *1536:B2 0
2 *1535:Y 0.00662646
3 *104:30 0.00084486
4 *104:22 0.00747132
5 *104:22 *1424:A 0.000116881
6 *104:22 *111:24 0.000460497
7 *104:22 *120:33 0.000553159
8 *104:22 *144:58 0.000448032
9 *104:22 *161:10 0.00036858
10 *104:22 *164:23 0.000436725
11 *104:22 *167:34 0.000220321
12 *104:22 *169:49 0.000111243
13 *104:22 *170:24 0.000394668
14 *104:22 *174:24 0
15 *104:22 *177:24 0.0032243
16 *104:22 *201:23 0.000227168
17 *104:22 *201:27 0.00061719
18 *104:22 *201:33 0.000284006
19 *104:22 *219:22 0
20 *104:22 *227:45 0.000233048
21 *104:30 *1433:B1 9.84729e-05
22 *104:30 *1434:C 0.000472556
23 *104:30 *1536:A2 0.000651423
24 *104:30 *1536:B1 0.00281746
25 *104:30 *1538:A2 0.000575713
26 *104:30 *1538:A3 0.000162131
27 *104:30 *1538:B1 0.000465137
28 *104:30 *158:49 0.000373349
29 *104:30 *168:44 0.000143101
30 *104:30 *176:28 0.000274376
31 *1498:A *104:22 0.000173982
32 *1498:B *104:22 0.000231681
33 *1509:A2 *104:30 0
34 *41:10 *104:22 0.000106304
35 *52:24 *104:22 0
36 *70:14 *104:22 0.000216341
37 *89:12 *104:22 0.00019662
38 *91:22 *104:22 0.000622761
39 *103:12 *104:22 0.000228549
*RES
1 *1535:Y *104:22 47.9235 
2 *104:22 *104:30 42.1875 
3 *104:30 *1536:B2 9.3 
*END

*D_NET *105 0.0044348
*CONN
*I *1538:B1 I *D sky130_fd_sc_hd__a311o_1
*I *1536:X O *D sky130_fd_sc_hd__o22a_1
*CAP
1 *1538:B1 0.00137743
2 *1536:X 0.00137743
3 *1538:B1 *1536:A2 0.00053279
4 *1538:B1 *1538:A1 8.6229e-06
5 *1538:B1 *1538:A2 0.000572324
6 *1538:B1 *106:24 4.43299e-05
7 *1538:B1 *178:12 1.62216e-05
8 *1476:A *1538:B1 4.05054e-05
9 *104:30 *1538:B1 0.000465137
*RES
1 *1536:X *1538:B1 48.1536 
*END

*D_NET *106 0.0209783
*CONN
*I *1538:C1 I *D sky130_fd_sc_hd__a311o_1
*I *1537:Y O *D sky130_fd_sc_hd__nor2_1
*CAP
1 *1538:C1 0
2 *1537:Y 0.00581555
3 *106:24 0.00581555
4 *106:24 *1386:B 0.000168655
5 *106:24 *1429:B 0.000420283
6 *106:24 *1432:A 0.00160113
7 *106:24 *1521:A2 0.000100843
8 *106:24 *107:12 0.000105199
9 *106:24 *145:28 0.000375714
10 *106:24 *148:12 0.000107625
11 *106:24 *155:20 0.000391504
12 *106:24 *173:37 0.00160891
13 *106:24 *176:18 0
14 *106:24 *178:12 4.43299e-05
15 *106:24 *198:32 0
16 *106:24 *199:16 0.000100699
17 *106:24 *199:29 0.000144126
18 *106:24 *212:22 0
19 *1538:B1 *106:24 4.43299e-05
20 *63:10 *106:24 0.000100843
21 *67:24 *106:24 0.0021038
22 *81:20 *106:24 0.000107162
23 *92:14 *106:24 0.00175496
24 *98:10 *106:24 6.71336e-05
*RES
1 *1537:Y *106:24 46.2034 
2 *106:24 *1538:C1 13.8 
*END

*D_NET *107 0.0109138
*CONN
*I *1539:B1_N I *D sky130_fd_sc_hd__o21bai_1
*I *1538:X O *D sky130_fd_sc_hd__a311o_1
*CAP
1 *1539:B1_N 0.000586403
2 *1538:X 0.000533644
3 *107:12 0.00180695
4 *107:8 0.00175419
5 *1539:B1_N *193:56 0.000224096
6 *107:8 *1434:B 5.49995e-05
7 *107:8 *178:8 9.99853e-05
8 *107:8 *181:131 0.000180202
9 *107:8 *220:34 0.000611595
10 *107:12 *1429:A 0.000519797
11 *107:12 *1432:A 0.000138531
12 *107:12 *1455:B1 0.000606641
13 *107:12 *1521:A2 0.00104412
14 *107:12 *148:46 0.000749053
15 *107:12 *199:29 0.000333484
16 *1509:A2 *107:12 0
17 *1509:B1 *107:12 0.000611962
18 *55:14 *1539:B1_N 0.000262504
19 *57:27 *107:12 2.49484e-05
20 *63:10 *107:12 0.000174061
21 *63:18 *107:12 2.39923e-05
22 *81:20 *107:12 0.000467456
23 *106:24 *107:12 0.000105199
*RES
1 *1538:X *107:8 25.0143 
2 *107:8 *107:12 43.1786 
3 *107:12 *1539:B1_N 16.4071 
*END

*D_NET *108 0.0101839
*CONN
*I *1540:B1 I *D sky130_fd_sc_hd__a31o_1
*I *1539:Y O *D sky130_fd_sc_hd__o21bai_1
*CAP
1 *1540:B1 0.00063533
2 *1539:Y 0.000794666
3 *108:18 0.00143
4 *1540:B1 *1401:B1_N 0.000148868
5 *1540:B1 *1540:A1 2.22212e-05
6 *1540:B1 *151:22 9.00294e-05
7 *1540:B1 *166:16 0.00111072
8 *1540:B1 *204:38 2.84398e-05
9 *1540:B1 *204:46 0.000854402
10 *1540:B1 *218:18 5.49995e-05
11 *108:18 *1502:A1 0.000751161
12 *108:18 *1502:C1 0.000137983
13 *108:18 *193:56 0.00202024
14 *1539:A2 *108:18 5.7661e-06
15 *46:10 *1540:B1 3.33972e-05
16 *55:14 *108:18 0.00170947
17 *75:12 *108:18 7.55331e-05
18 *78:22 *1540:B1 0.00028068
*RES
1 *1539:Y *108:18 40.925 
2 *108:18 *1540:B1 34.5991 
*END

*D_NET *109 0.0157917
*CONN
*I *1543:A I *D sky130_fd_sc_hd__xnor2_2
*I *1541:X O *D sky130_fd_sc_hd__or2b_2
*CAP
1 *1543:A 0.000147184
2 *1541:X 0.00058707
3 *109:20 0.0022265
4 *109:18 0.0033847
5 *109:10 0.00189246
6 *1543:A *1543:B 1.12808e-05
7 *1543:A *177:24 2.18103e-05
8 *1543:A *229:14 0
9 *109:10 *1591:A 5.59013e-05
10 *109:10 *209:16 0.000756988
11 *109:10 *225:78 0.00142596
12 *109:18 *155:36 8.11524e-05
13 *109:18 *162:27 0.000204814
14 *109:18 *162:29 1.43349e-05
15 *109:18 *207:23 0.000256574
16 *109:18 *230:18 4.82865e-05
17 *109:20 *111:24 0.000746393
18 *109:20 *121:10 0
19 *109:20 *136:28 0.000638462
20 *109:20 *162:29 0.00203808
21 *109:20 *177:24 0.000320847
22 *109:20 *181:115 0
23 *109:20 *207:10 0.000368729
24 *109:20 *207:23 2.57258e-05
25 *109:20 *229:14 0
26 *40:29 *109:18 0.00030355
27 *82:24 *109:10 0.000234866
*RES
1 *1541:X *109:10 37.8536 
2 *109:10 *109:18 21.6161 
3 *109:18 *109:20 54.0089 
4 *109:20 *1543:A 16.4429 
*END

*D_NET *110 0.00377716
*CONN
*I *1543:B I *D sky130_fd_sc_hd__xnor2_2
*I *1542:Y O *D sky130_fd_sc_hd__nand2_1
*CAP
1 *1543:B 0.00145894
2 *1542:Y 0.00145894
3 *1543:B *199:16 5.49544e-05
4 *1532:A *1543:B 0.000793052
5 *1543:A *1543:B 1.12808e-05
*RES
1 *1542:Y *1543:B 37.4214 
*END

*D_NET *111 0.0200924
*CONN
*I *1549:A2 I *D sky130_fd_sc_hd__a221o_1
*I *1543:Y O *D sky130_fd_sc_hd__xnor2_2
*CAP
1 *1549:A2 2.02941e-05
2 *1543:Y 0.00577283
3 *111:24 0.00579313
4 *1549:A2 *186:65 2.62823e-05
5 *111:24 *1424:A 0
6 *111:24 *1424:C 0.000142026
7 *111:24 *1499:A 0.000268317
8 *111:24 *120:10 0.000185751
9 *111:24 *120:33 0.00191893
10 *111:24 *159:12 0.000513401
11 *111:24 *162:14 0.000233048
12 *111:24 *162:29 0.000851165
13 *111:24 *163:14 0.000280169
14 *111:24 *163:16 0.000728399
15 *111:24 *167:40 0.000300986
16 *111:24 *177:24 1.22852e-05
17 *111:24 *206:35 0.000166892
18 *111:24 *209:10 0
19 *111:24 *219:22 0.000378692
20 *111:24 *229:47 0.000890846
21 *1520:B1 *111:24 0.00013415
22 *1549:A1 *1549:A2 7.66493e-05
23 *82:24 *111:24 0.000143882
24 *92:14 *111:24 4.73953e-05
25 *104:22 *111:24 0.000460497
26 *109:20 *111:24 0.000746393
*RES
1 *1543:Y *111:24 46.9293 
2 *111:24 *1549:A2 14.5411 
*END

*D_NET *112 0.0158602
*CONN
*I *1549:B1 I *D sky130_fd_sc_hd__a221o_1
*I *1544:X O *D sky130_fd_sc_hd__xor2_1
*CAP
1 *1549:B1 8.44022e-05
2 *1544:X 0.00021497
3 *112:10 0.00190227
4 *112:8 0.00203284
5 *1549:B1 *1549:B2 3.01393e-05
6 *1549:B1 *1549:C1 0.000356237
7 *1549:B1 *186:65 2.26528e-05
8 *1549:B1 *215:12 0.000484662
9 *112:8 *1558:B1 0.000310605
10 *112:10 *1409:D 0.000906344
11 *112:10 *1422:A_N 0.000909286
12 *112:10 *1437:B 0.000236243
13 *112:10 *1549:B2 0.000709821
14 *112:10 *164:54 0.00152013
15 *112:10 *169:49 0.000742431
16 *112:10 *179:40 6.51025e-05
17 *112:10 *180:23 0.00263462
18 *112:10 *195:12 4.10809e-05
19 *112:10 *195:48 0.000261707
20 *112:10 *209:50 9.8126e-05
21 *112:10 *222:39 0.00164425
22 *1511:A2 *112:10 5.93879e-05
23 *41:44 *112:10 4.24291e-05
24 *95:14 *112:10 0.000387438
25 *95:30 *112:10 0.000163015
*RES
1 *1544:X *112:8 16.8 
2 *112:8 *112:10 66.9107 
3 *112:10 *1549:B1 18.4429 
*END

*D_NET *113 0.0064299
*CONN
*I *1546:B2 I *D sky130_fd_sc_hd__o22a_1
*I *1545:Y O *D sky130_fd_sc_hd__a21oi_1
*CAP
1 *1546:B2 0
2 *1545:Y 0.000990321
3 *113:16 0.000990321
4 *113:16 *1545:B1 7.97383e-06
5 *113:16 *1551:B 0.000153691
6 *113:16 *114:8 5.66971e-05
7 *113:16 *114:10 0.00203089
8 *113:16 *119:10 0.000310144
9 *113:16 *126:12 0.0012325
10 *113:16 *137:16 5.50052e-05
11 *113:16 *212:22 0.000446844
12 *77:20 *113:16 0.000155515
*RES
1 *1545:Y *113:16 49.1036 
2 *113:16 *1546:B2 9.3 
*END

*D_NET *114 0.0167833
*CONN
*I *1548:B1 I *D sky130_fd_sc_hd__a311o_1
*I *1546:X O *D sky130_fd_sc_hd__o22a_1
*CAP
1 *1548:B1 0.00205567
2 *1546:X 6.77798e-05
3 *114:10 0.00392784
4 *114:8 0.00193995
5 *1548:B1 *1548:A2 3.4846e-06
6 *1548:B1 *1548:A3 0.000915966
7 *1548:B1 *141:10 9.66977e-05
8 *1548:B1 *170:31 0.000121418
9 *1548:B1 *181:38 9.58126e-05
10 *1548:B1 *187:24 9.77046e-05
11 *1548:B1 *202:35 0.000295347
12 *1548:B1 *202:48 0.000296399
13 *114:8 *1546:B1 5.33005e-05
14 *114:8 *137:16 5.2794e-05
15 *114:8 *137:28 6.05161e-06
16 *114:8 *196:18 5.49489e-05
17 *114:10 *1503:A1 0.00106037
18 *114:10 *1546:A1 0.00131967
19 *114:10 *119:10 5.25862e-06
20 *114:10 *126:12 0.000280039
21 *114:10 *149:87 0.000711313
22 *114:10 *176:18 0.000473779
23 *114:10 *212:22 0.000541485
24 *114:10 *226:48 1.03403e-05
25 *49:28 *114:10 7.55968e-05
26 *53:74 *114:8 0.000136682
27 *75:18 *114:10 0
28 *113:16 *114:8 5.66971e-05
29 *113:16 *114:10 0.00203089
*RES
1 *1546:X *114:8 15.9786 
2 *114:8 *114:10 53.25 
3 *114:10 *1548:B1 49.6214 
*END

*D_NET *115 0.00977497
*CONN
*I *1548:C1 I *D sky130_fd_sc_hd__a311o_1
*I *1547:Y O *D sky130_fd_sc_hd__nor2_1
*CAP
1 *1548:C1 0.000570684
2 *1547:Y 0.00104466
3 *115:12 0.00161535
4 *1548:C1 *1450:B1 2.07809e-05
5 *1548:C1 *116:20 0.000888453
6 *1548:C1 *142:94 0.000360845
7 *1548:C1 *142:170 9.15842e-06
8 *1548:C1 *170:31 0.000124846
9 *1548:C1 *175:20 0.000340059
10 *1548:C1 *187:24 5.33005e-05
11 *1548:C1 *187:28 3.10885e-05
12 *1548:C1 *198:12 0.000200661
13 *1548:C1 *202:48 0
14 *115:12 *1454:C 0.000771456
15 *115:12 *186:65 0.00167063
16 *115:12 *198:12 9.67754e-05
17 *115:12 *224:31 3.97677e-05
18 *1478:C *1548:C1 9.60875e-05
19 *61:18 *115:12 0.000180195
20 *61:26 *115:12 0.00166018
*RES
1 *1547:Y *115:12 45.6929 
2 *115:12 *1548:C1 31.8714 
*END

*D_NET *116 0.0116123
*CONN
*I *1549:C1 I *D sky130_fd_sc_hd__a221o_1
*I *1548:X O *D sky130_fd_sc_hd__a311o_1
*CAP
1 *1549:C1 0.000186304
2 *1548:X 0.00068134
3 *116:28 0.00192419
4 *116:20 0.00241922
5 *1549:C1 *1549:B2 0.000399705
6 *1549:C1 *186:65 9.30625e-05
7 *1549:C1 *215:12 0.000167026
8 *116:20 *1478:B 0.000113647
9 *116:20 *1548:A1 6.49154e-05
10 *116:20 *1548:A3 7.70035e-05
11 *116:20 *187:24 0.000267278
12 *116:20 *198:12 0.000890168
13 *116:20 *202:48 7.68283e-05
14 *116:28 *1404:A 3.11713e-05
15 *116:28 *1479:B 0.000262764
16 *116:28 *1518:C1 0.00012249
17 *116:28 *134:29 0.00111761
18 *116:28 *134:33 0.000262764
19 *116:28 *183:70 0.000931239
20 *1478:C *116:20 3.14193e-05
21 *1548:C1 *116:20 0.000888453
22 *1549:B1 *1549:C1 0.000356237
23 *32:52 *116:28 0.000190738
24 *53:8 *116:28 5.66971e-05
*RES
1 *1548:X *116:20 45.5679 
2 *116:20 *116:28 45.3571 
3 *116:28 *1549:C1 15.9964 
*END

*D_NET *117 0.0140834
*CONN
*I *1551:B I *D sky130_fd_sc_hd__nand2_1
*I *1550:X O *D sky130_fd_sc_hd__a31o_1
*CAP
1 *1551:B 0.000781903
2 *1550:X 0.00157391
3 *117:16 0.00212668
4 *117:8 0.00291868
5 *1551:B *1545:A2 1.58163e-05
6 *1551:B *149:73 9.43077e-06
7 *1551:B *149:87 4.95491e-06
8 *117:8 *1550:A2 4.48128e-05
9 *117:8 *1592:A 5.33005e-05
10 *117:8 *128:12 0.000630404
11 *117:8 *224:8 0.00035013
12 *117:16 *1404:A 0.000478089
13 *117:16 *148:40 0.000507034
14 *117:16 *210:22 0.000725989
15 *117:16 *211:56 0.00181303
16 *1550:A3 *117:8 0.000134461
17 *32:20 *117:16 0.00138885
18 *32:39 *117:16 0.000196391
19 *33:16 *117:16 0.000175892
20 *113:16 *1551:B 0.000153691
*RES
1 *1550:X *117:8 33.6393 
2 *117:8 *117:16 44.25 
3 *117:16 *1551:B 18.2643 
*END

*D_NET *118 0.00939086
*CONN
*I *1552:C I *D sky130_fd_sc_hd__and3_1
*I *1551:Y O *D sky130_fd_sc_hd__nand2_1
*CAP
1 *1552:C 0
2 *1551:Y 0.000135808
3 *118:14 0.00162648
4 *118:8 0.00176229
5 *118:8 *141:24 9.41642e-05
6 *118:8 *149:73 5.36438e-05
7 *118:14 *1387:A 0.000131724
8 *118:14 *1408:A1 0.000230124
9 *118:14 *1435:B 0.000485719
10 *118:14 *1538:A1 0.000451696
11 *118:14 *135:32 0.00165891
12 *118:14 *141:24 3.14003e-05
13 *118:14 *146:12 0.000721055
14 *118:14 *152:16 1.09026e-05
15 *118:14 *158:14 4.11642e-05
16 *118:14 *178:12 0.000569535
17 *1487:A *118:14 0.000141331
18 *1530:A *118:14 0.000367825
19 *35:55 *118:14 0.000186392
20 *44:22 *118:8 0.000140856
21 *72:12 *118:14 0.00023042
22 *88:24 *118:14 0.000319421
*RES
1 *1551:Y *118:8 16.8 
2 *118:8 *118:14 48.3304 
3 *118:14 *1552:C 9.3 
*END

*D_NET *119 0.0119985
*CONN
*I *1560:A I *D sky130_fd_sc_hd__or3_1
*I *1552:X O *D sky130_fd_sc_hd__and3_1
*CAP
1 *1560:A 0
2 *1552:X 0.000645355
3 *119:10 0.00148136
4 *119:8 0.00212671
5 *119:10 *126:12 0.0017884
6 *119:10 *168:18 4.08132e-05
7 *119:10 *176:28 0.000245358
8 *119:10 *186:26 0.0013172
9 *119:10 *186:28 0.000198119
10 *119:10 *186:32 0.000949897
11 *119:10 *196:18 4.44214e-05
12 *119:10 *212:22 0.000294153
13 *53:74 *119:10 7.58841e-05
14 *72:12 *119:8 0.00134393
15 *75:18 *119:10 0.000977083
16 *77:20 *119:10 0.000154392
17 *113:16 *119:10 0.000310144
18 *114:10 *119:10 5.25862e-06
*RES
1 *1552:X *119:8 26.6571 
2 *119:8 *119:10 46.5714 
3 *119:10 *1560:A 13.8 
*END

*D_NET *120 0.0253612
*CONN
*I *1554:A_N I *D sky130_fd_sc_hd__and2b_1
*I *1557:B1 I *D sky130_fd_sc_hd__o22a_1
*I *1553:Y O *D sky130_fd_sc_hd__nor2_2
*CAP
1 *1554:A_N 0.000600427
2 *1557:B1 0
3 *1553:Y 0
4 *120:33 0.00216918
5 *120:10 0.00277413
6 *120:6 0.00338974
7 *120:4 0.00218436
8 *1554:A_N *1424:C 0
9 *1554:A_N *159:12 0
10 *1554:A_N *162:27 0.000181169
11 *1554:A_N *163:12 3.97543e-05
12 *1554:A_N *202:31 0
13 *1554:A_N *207:23 0.00127598
14 *1554:A_N *229:47 0.000197797
15 *120:6 *1430:C 0.00218569
16 *120:6 *1588:A 0.000528165
17 *120:6 *219:30 0.000238501
18 *120:10 *1499:A 0.00149717
19 *120:10 *144:10 0.000262465
20 *120:10 *163:16 5.2156e-05
21 *120:10 *167:40 0.000739611
22 *120:10 *170:24 0
23 *120:10 *177:24 0
24 *120:10 *201:33 1.00375e-05
25 *120:10 *206:35 0.000175526
26 *120:33 *1524:A2 7.72262e-05
27 *120:33 *131:76 0.000583065
28 *120:33 *144:58 0.000600803
29 *120:33 *159:12 0.000340639
30 *120:33 *163:16 3.56119e-05
31 *120:33 *167:34 3.49187e-05
32 *120:33 *167:40 0.000768035
33 *120:33 *206:35 0.00064374
34 *33:12 *120:33 7.58841e-05
35 *49:71 *120:6 0.000751715
36 *85:22 *120:33 0.000289889
37 *104:22 *120:33 0.000553159
38 *111:24 *120:10 0.000185751
39 *111:24 *120:33 0.00191893
*RES
1 *1553:Y *120:4 9.3 
2 *120:4 *120:6 46.125 
3 *120:6 *120:10 36.5 
4 *120:10 *1557:B1 13.8 
5 *120:10 *120:33 40.6326 
6 *120:33 *1554:A_N 30.1661 
*END

*D_NET *121 0.0123931
*CONN
*I *1555:B1 I *D sky130_fd_sc_hd__a31o_1
*I *1554:X O *D sky130_fd_sc_hd__and2b_1
*CAP
1 *1555:B1 0.000191457
2 *1554:X 7.0365e-05
3 *121:10 0.00206756
4 *121:8 0.00194647
5 *1555:B1 *204:16 6.00039e-05
6 *121:8 *230:10 5.21894e-05
7 *121:10 *1392:A 0.000143457
8 *121:10 *1465:B1 5.41794e-05
9 *121:10 *136:12 0.000120645
10 *121:10 *136:16 0.000685533
11 *121:10 *136:28 0.00198934
12 *121:10 *148:20 5.10822e-05
13 *121:10 *148:22 4.02462e-05
14 *121:10 *148:24 9.81804e-05
15 *121:10 *160:16 0
16 *121:10 *193:18 0.00021335
17 *121:10 *204:16 0.00303036
18 *121:10 *204:27 0.000313706
19 *121:10 *207:23 0.000298479
20 *121:10 *219:22 0.000966492
21 *109:20 *121:10 0
*RES
1 *1554:X *121:8 14.7464 
2 *121:8 *121:10 61.75 
3 *121:10 *1555:B1 16.3 
*END

*D_NET *122 0.0133279
*CONN
*I *1560:B I *D sky130_fd_sc_hd__or3_1
*I *1555:X O *D sky130_fd_sc_hd__a31o_1
*CAP
1 *1560:B 0.00178994
2 *1555:X 0.00123813
3 *122:20 0.00277184
4 *122:16 0.00222003
5 *1560:B *157:16 0.00239631
6 *122:16 *1400:C 3.75959e-05
7 *122:16 *128:8 7.58841e-05
8 *122:16 *184:16 0.000344485
9 *122:20 *138:16 4.61002e-05
10 *122:20 *193:8 0.000425827
11 *122:20 *193:18 5.107e-05
12 *122:20 *206:58 7.49739e-05
13 *1504:A2 *122:20 0.000997079
14 *1504:B1 *122:20 8.58455e-05
15 *1516:A2 *122:20 0.000215432
16 *53:28 *122:20 5.72435e-05
17 *53:32 *122:20 0.000500118
*RES
1 *1555:X *122:16 37.2286 
2 *122:16 *122:20 32.8571 
3 *122:20 *1560:B 32.8357 
*END

*D_NET *123 0.00931977
*CONN
*I *1559:A3 I *D sky130_fd_sc_hd__a31o_1
*I *1556:X O *D sky130_fd_sc_hd__a21o_1
*CAP
1 *1559:A3 0.00102424
2 *1556:X 0.00125286
3 *123:12 0.0022771
4 *1559:A3 *124:12 8.38554e-05
5 *1559:A3 *130:87 0.00198177
6 *1559:A3 *133:38 6.57032e-05
7 *1559:A3 *158:43 0.000218685
8 *123:12 *1417:A_N 0.000735623
9 *123:12 *1556:A1 0.00038214
10 *123:12 *183:180 9.25014e-06
11 *123:12 *192:32 5.7639e-05
12 *53:32 *123:12 0.00035676
13 *71:10 *123:12 0.000692339
14 *76:16 *123:12 0.000181799
*RES
1 *1556:X *123:12 40.0857 
2 *123:12 *1559:A3 31.1929 
*END

*D_NET *124 0.00740686
*CONN
*I *1558:B1 I *D sky130_fd_sc_hd__a21oi_1
*I *1557:X O *D sky130_fd_sc_hd__o22a_1
*CAP
1 *1558:B1 0.000749718
2 *1557:X 0.00146372
3 *124:12 0.00221343
4 *1558:B1 *1558:A1 3.02836e-05
5 *1558:B1 *1559:B1 1.32293e-05
6 *1558:B1 *164:54 2.12647e-05
7 *1558:B1 *167:40 0.000820606
8 *1558:B1 *226:27 0.000207592
9 *124:12 *1481:A2 0
10 *124:12 *1557:B2 0.000387629
11 *124:12 *130:87 0.000188193
12 *124:12 *133:38 2.88018e-06
13 *124:12 *183:180 0.00022176
14 *124:12 *195:48 0.000309008
15 *124:12 *196:18 9.5609e-06
16 *124:12 *210:52 0.000222349
17 *124:12 *222:37 0.000151176
18 *1559:A3 *124:12 8.38554e-05
19 *112:8 *1558:B1 0.000310605
*RES
1 *1557:X *124:12 41.0143 
2 *124:12 *1558:B1 24.5321 
*END

*D_NET *125 0.00301579
*CONN
*I *1559:B1 I *D sky130_fd_sc_hd__a31o_1
*I *1558:Y O *D sky130_fd_sc_hd__a21oi_1
*CAP
1 *1559:B1 0.000705649
2 *1558:Y 0.000705649
3 *1559:B1 *1558:A1 0.000425339
4 *1559:B1 *140:24 3.30575e-05
5 *1559:B1 *168:36 0.000217852
6 *1559:B1 *186:26 0.000539342
7 *1559:B1 *186:28 0.000145177
8 *1559:B1 *226:27 1.8584e-05
9 *1559:B1 *227:81 0.00021191
10 *1558:B1 *1559:B1 1.32293e-05
*RES
1 *1558:Y *1559:B1 41.5821 
*END

*D_NET *126 0.00514629
*CONN
*I *1560:C I *D sky130_fd_sc_hd__or3_1
*I *1559:X O *D sky130_fd_sc_hd__a31o_1
*CAP
1 *1560:C 0
2 *1559:X 0.000726921
3 *126:12 0.000726921
4 *126:12 *158:43 9.60939e-05
5 *126:12 *212:22 0.000295417
6 *113:16 *126:12 0.0012325
7 *114:10 *126:12 0.000280039
8 *119:10 *126:12 0.0017884
*RES
1 *1559:X *126:12 42.7464 
2 *126:12 *1560:C 9.3 
*END

*D_NET *127 0.00599584
*CONN
*I *1561:A I *D sky130_fd_sc_hd__clkbuf_1
*I *1560:X O *D sky130_fd_sc_hd__or3_1
*CAP
1 *1561:A 0
2 *1560:X 0.00159689
3 *127:14 0.00159689
4 *127:14 *136:92 0.000341154
5 *127:14 *181:14 0.00139437
6 *127:14 *183:22 0.000342734
7 *127:14 *188:69 0.000723795
*RES
1 *1560:X *127:14 44.6929 
2 *127:14 *1561:A 9.3 
*END

*D_NET *128 0.0216424
*CONN
*I *1441:B I *D sky130_fd_sc_hd__nand2_2
*I *1386:A I *D sky130_fd_sc_hd__nor2_4
*I *1384:Y O *D sky130_fd_sc_hd__inv_2
*CAP
1 *1441:B 0.000778823
2 *1386:A 0
3 *1384:Y 0
4 *128:12 0.00116555
5 *128:8 0.00240558
6 *128:6 0.00201885
7 *1441:B *1547:B 2.2927e-05
8 *1441:B *1549:B2 0.000178847
9 *1441:B *129:36 0.000106689
10 *1441:B *130:33 0.000148196
11 *1441:B *207:42 0.000125081
12 *1441:B *208:44 0.000388036
13 *1441:B *224:8 0.000168064
14 *128:8 *1400:C 9.74447e-05
15 *128:8 *1447:B1 0
16 *128:8 *1447:C1 0.00114171
17 *128:8 *130:99 0
18 *128:8 *133:20 0.00047591
19 *128:8 *133:38 0.000199881
20 *128:8 *167:34 0.000168202
21 *128:8 *225:14 0.00071825
22 *128:8 *225:34 0.000176234
23 *128:8 *230:10 0.00020475
24 *128:8 *230:18 0.00111268
25 *128:8 *230:20 0.0037278
26 *128:12 *1549:B2 0.000309266
27 *128:12 *1550:A2 0.00125717
28 *128:12 *1592:A 5.33005e-05
29 *128:12 *224:8 0.000309266
30 *1480:B *128:8 1.91418e-05
31 *33:49 *1441:B 0.000515321
32 *40:14 *128:8 0.00128546
33 *52:24 *128:8 0.000330324
34 *53:28 *128:8 0.000363054
35 *61:18 *1441:B 0.000327546
36 *67:24 *1441:B 0.000129259
37 *98:10 *1441:B 0.000507502
38 *103:12 *128:8 0
39 *117:8 *128:12 0.000630404
40 *122:16 *128:8 7.58841e-05
*RES
1 *1384:Y *128:6 13.8 
2 *128:6 *128:8 69.6429 
3 *128:8 *128:12 19.8214 
4 *128:12 *1386:A 9.3 
5 *128:12 *1441:B 39.6571 
*END

*D_NET *129 0.00869938
*CONN
*I *1438:B I *D sky130_fd_sc_hd__or2_1
*I *1518:B1 I *D sky130_fd_sc_hd__o211ai_2
*I *1479:B I *D sky130_fd_sc_hd__and3_2
*I *1386:B I *D sky130_fd_sc_hd__nor2_4
*I *1385:X O *D sky130_fd_sc_hd__or2_2
*CAP
1 *1438:B 0
2 *1518:B1 0.000383893
3 *1479:B 0.000172467
4 *1386:B 0.000246982
5 *1385:X 0.000227815
6 *129:36 0.00084061
7 *129:10 0.000496483
8 *129:8 0.000761568
9 *1386:B *1550:A2 7.24613e-05
10 *1386:B *148:12 0.000542221
11 *1386:B *224:8 0.000141131
12 *1518:B1 *1394:B 9.90367e-05
13 *1518:B1 *1404:A 0
14 *1518:B1 *1438:A 5.33005e-05
15 *1518:B1 *1488:A2 7.55804e-05
16 *1518:B1 *1518:A2 1.78353e-05
17 *1518:B1 *1518:C1 0
18 *1518:B1 *148:12 4.98481e-05
19 *129:8 *1547:A 0.000301094
20 *129:8 *209:85 0.000560803
21 *129:10 *1547:B 0.000144732
22 *129:10 *148:12 0.000189215
23 *129:36 *1438:A 0.000181634
24 *129:36 *1547:B 2.22419e-05
25 *129:36 *148:12 0.00100225
26 *1441:B *129:36 0.000106689
27 *37:31 *1518:B1 2.28499e-05
28 *60:43 *1518:B1 0.000282134
29 *61:18 *1518:B1 6.19281e-05
30 *61:18 *129:8 3.97677e-05
31 *61:18 *129:36 0
32 *61:26 *129:8 0.000811201
33 *98:10 *1386:B 0.00024569
34 *98:10 *129:10 1.73789e-05
35 *102:12 *1518:B1 9.71197e-05
36 *106:24 *1386:B 0.000168655
37 *116:28 *1479:B 0.000262764
*RES
1 *1385:X *129:8 22.55 
2 *129:8 *129:10 2.55357 
3 *129:10 *1386:B 22.2643 
4 *129:10 *1479:B 16.8179 
5 *129:8 *129:36 17.6786 
6 *129:36 *1518:B1 26.9964 
7 *129:36 *1438:B 9.3 
*END

*D_NET *130 0.0425308
*CONN
*I *1517:A I *D sky130_fd_sc_hd__or2_1
*I *1515:A1 I *D sky130_fd_sc_hd__a21bo_1
*I *1525:B I *D sky130_fd_sc_hd__and3b_1
*I *1559:A2 I *D sky130_fd_sc_hd__a31o_1
*I *1504:A1 I *D sky130_fd_sc_hd__a31o_1
*I *1481:A1 I *D sky130_fd_sc_hd__a211o_1
*I *1534:B1 I *D sky130_fd_sc_hd__o21ai_1
*I *1549:B2 I *D sky130_fd_sc_hd__a221o_1
*I *1386:Y O *D sky130_fd_sc_hd__nor2_4
*CAP
1 *1517:A 0.00129408
2 *1515:A1 0.0021388
3 *1525:B 1.49169e-05
4 *1559:A2 0
5 *1504:A1 0
6 *1481:A1 0.000338538
7 *1534:B1 0.000332807
8 *1549:B2 0.000521484
9 *1386:Y 0
10 *130:131 0.00233107
11 *130:99 0.00152127
12 *130:89 0.00089126
13 *130:87 0.0014001
14 *130:67 0.00447485
15 *130:51 0.00539934
16 *130:33 0.00420628
17 *130:4 0.00132779
18 *1481:A1 *1481:B1 0.000338844
19 *1515:A1 *1445:B1 9.60337e-06
20 *1515:A1 *136:92 2.67386e-05
21 *1515:A1 *143:26 4.37712e-06
22 *1515:A1 *167:24 0
23 *1515:A1 *169:22 0
24 *1515:A1 *173:37 0.000119085
25 *1515:A1 *227:108 5.7903e-06
26 *1517:A *1448:B 9.77074e-05
27 *1517:A *169:22 0.00017309
28 *1517:A *209:106 0.000202528
29 *1534:B1 *1481:B1 0.000571216
30 *1534:B1 *1534:A1 9.41642e-05
31 *1549:B2 *1550:A2 0.000514623
32 *1549:B2 *186:65 0.000238157
33 *1549:B2 *224:8 2.36643e-05
34 *130:51 *1397:A 9.25014e-06
35 *130:51 *1431:B1 0.000291986
36 *130:51 *165:16 0.000432333
37 *130:51 *169:22 0.00118973
38 *130:51 *173:37 2.67866e-05
39 *130:51 *222:45 0.000511989
40 *130:67 *1446:A1 0
41 *130:67 *1559:A1 1.58163e-05
42 *130:67 *137:43 0.000164129
43 *130:67 *158:43 5.64416e-05
44 *130:67 *186:18 0.000118315
45 *130:87 *133:38 6.00647e-05
46 *130:87 *158:43 2.14658e-05
47 *130:87 *183:180 0.000392027
48 *130:87 *184:16 9.41642e-05
49 *130:87 *206:66 0.000431186
50 *130:87 *210:52 0.000353829
51 *130:89 *206:66 2.2351e-05
52 *130:99 *219:30 0.000673041
53 *130:99 *225:70 0.000194988
54 *130:99 *227:23 0.000259734
55 *130:99 *230:20 0
56 *130:131 *173:37 4.55219e-05
57 *1441:B *1549:B2 0.000178847
58 *1441:B *130:33 0.000148196
59 *1461:C *130:67 2.08375e-05
60 *1464:A2 *130:33 2.8078e-05
61 *1470:B *130:51 0
62 *1471:C1 *1517:A 0
63 *1480:B *130:99 0.000273444
64 *1480:C *130:99 6.07892e-05
65 *1487:A *1517:A 0.000101582
66 *1504:A2 *130:89 1.24368e-05
67 *1504:A3 *130:89 4.16473e-05
68 *1511:A2 *1549:B2 0.0003882
69 *1525:C *1525:B 7.69776e-06
70 *1549:B1 *1549:B2 3.01393e-05
71 *1549:C1 *1549:B2 0.000399705
72 *1550:A1 *130:33 0.000308851
73 *1559:A3 *130:87 0.00198177
74 *1589:A *1517:A 1.08359e-05
75 *1589:A *130:33 0.000128523
76 *1589:A *130:51 7.50601e-05
77 *35:63 *1525:B 5.7903e-06
78 *35:63 *130:51 3.27514e-05
79 *36:16 *130:51 9.41642e-05
80 *38:6 *130:33 0.00121934
81 *41:44 *1549:B2 1.2294e-05
82 *42:14 *130:33 0.000642691
83 *44:22 *130:51 4.66203e-05
84 *49:28 *130:51 0
85 *52:24 *1515:A1 0
86 *53:38 *130:99 1.60586e-05
87 *60:26 *1517:A 0
88 *60:43 *1517:A 0
89 *77:20 *130:87 1.52217e-05
90 *77:20 *130:89 0.000183477
91 *82:24 *130:99 3.91827e-05
92 *88:24 *1517:A 0.000159985
93 *97:20 *130:87 0
94 *98:10 *130:33 7.2754e-05
95 *103:8 *1534:B1 0.000609226
96 *112:10 *1549:B2 0.000709821
97 *124:12 *130:87 0.000188193
98 *128:8 *130:99 0
99 *128:12 *1549:B2 0.000309266
*RES
1 *1386:Y *130:4 9.3 
2 *130:4 *1549:B2 37.983 
3 *130:4 *130:33 32.4107 
4 *130:33 *130:51 35.1711 
5 *130:51 *130:67 20.309 
6 *130:67 *130:87 48.25 
7 *130:87 *130:89 1.76786 
8 *130:89 *130:99 28.9107 
9 *130:99 *1534:B1 20.1036 
10 *130:99 *1481:A1 16.55 
11 *130:89 *1504:A1 9.3 
12 *130:67 *1559:A2 9.3 
13 *130:51 *130:131 3.70923 
14 *130:131 *1525:B 17.4868 
15 *130:131 *1515:A1 21.698 
16 *130:33 *1517:A 37.55 
*END

*D_NET *131 0.051258
*CONN
*I *1426:A I *D sky130_fd_sc_hd__and3_2
*I *1527:A I *D sky130_fd_sc_hd__nor2_1
*I *1458:B1 I *D sky130_fd_sc_hd__o21a_2
*I *1419:C I *D sky130_fd_sc_hd__and4_2
*I *1523:A1 I *D sky130_fd_sc_hd__o22a_1
*I *1459:A I *D sky130_fd_sc_hd__or3_4
*I *1388:A I *D sky130_fd_sc_hd__nand2_2
*I *1524:A2 I *D sky130_fd_sc_hd__a22o_1
*I *1526:A1 I *D sky130_fd_sc_hd__a31o_1
*I *1522:A1 I *D sky130_fd_sc_hd__a21oi_2
*I *1387:X O *D sky130_fd_sc_hd__buf_4
*CAP
1 *1426:A 0.000217914
2 *1527:A 1.95116e-05
3 *1458:B1 0
4 *1419:C 0.00069613
5 *1523:A1 0
6 *1459:A 0
7 *1388:A 0.000123359
8 *1524:A2 0.000474969
9 *1526:A1 0.000264416
10 *1522:A1 0.000803784
11 *1387:X 0
12 *131:125 0.00179021
13 *131:119 0.00253559
14 *131:95 0.000435558
15 *131:76 0.0013408
16 *131:74 0.00170539
17 *131:70 0.00126554
18 *131:62 0.00135321
19 *131:60 0.00281162
20 *131:48 0.00281421
21 *131:31 0.00261575
22 *131:8 0.00352071
23 *131:6 0.00135997
24 *1419:C *1419:A 6.60154e-05
25 *1419:C *1457:A1 0.000146171
26 *1419:C *1457:B1 0.000186765
27 *1419:C *1592:A 1.89554e-05
28 *1419:C *201:71 2.75856e-05
29 *1419:C *204:27 0.000251888
30 *1419:C *204:34 9.99853e-05
31 *1419:C *223:10 0.000269961
32 *1426:A *1410:A2 7.48091e-05
33 *1426:A *1410:A3 2.59355e-05
34 *1426:A *1426:B 5.74499e-06
35 *1426:A *1426:C 3.48447e-05
36 *1426:A *189:12 5.91074e-05
37 *1522:A1 *1522:B1 0.000100037
38 *1522:A1 *136:108 0
39 *1522:A1 *188:18 0
40 *1522:A1 *217:16 0.000307023
41 *1524:A2 *1524:A1 9.58632e-05
42 *1524:A2 *1524:B1 1.96715e-05
43 *1524:A2 *1524:B2 1.98839e-05
44 *1524:A2 *144:58 7.5638e-05
45 *1524:A2 *148:30 0.000153193
46 *1526:A1 *133:58 0.000269801
47 *1526:A1 *201:49 0.000456075
48 *1527:A *183:22 5.46383e-06
49 *131:8 *134:105 0
50 *131:8 *188:18 0
51 *131:8 *217:16 0.000299973
52 *131:31 *135:18 0.00150025
53 *131:31 *199:16 0.000242913
54 *131:48 *1426:C 0.000136958
55 *131:48 *1500:B 0
56 *131:48 *134:105 0
57 *131:48 *170:18 0.000125443
58 *131:48 *187:28 0.000153047
59 *131:48 *189:12 0.000182235
60 *131:48 *217:16 0.000374965
61 *131:48 *227:102 0.000106526
62 *131:48 *228:66 0
63 *131:60 *141:24 0.000165467
64 *131:60 *149:73 0.000297406
65 *131:60 *166:16 0.00168458
66 *131:60 *183:22 0.000256405
67 *131:62 *183:22 3.97677e-05
68 *131:62 *183:28 0.000987105
69 *131:70 *142:30 0.00021617
70 *131:74 *204:27 0.00134564
71 *131:76 *144:58 0.0015143
72 *131:76 *159:12 0.000332053
73 *131:95 *148:30 0.000549576
74 *131:119 *1416:A 3.87887e-05
75 *131:119 *1416:B 9.0331e-05
76 *131:119 *1520:A1 9.66977e-05
77 *131:119 *1520:A2 0.000131103
78 *131:119 *144:58 0.000150038
79 *131:119 *159:12 4.8352e-05
80 *131:119 *160:16 1.26059e-05
81 *131:125 *1413:A2 0.00121357
82 *131:125 *1523:B1 0
83 *131:125 *203:31 0
84 *131:125 *208:10 5.20751e-05
85 *1458:A1 *131:62 0.000517165
86 *1458:A1 *131:70 0.000136682
87 *1459:B *1524:A2 6.93704e-06
88 *1459:B *131:95 0.000887027
89 *1459:C *131:95 9.60875e-05
90 *1526:B1 *1526:A1 0.000184522
91 *31:14 *1419:C 0
92 *31:14 *131:70 5.33005e-05
93 *31:28 *131:70 9.58126e-05
94 *32:8 *131:62 0.000306375
95 *33:12 *131:95 0.000108911
96 *39:20 *1388:A 8.46197e-05
97 *46:10 *131:60 0.00226619
98 *47:39 *1426:A 6.64099e-05
99 *47:39 *131:48 0.00018052
100 *49:55 *131:60 9.09604e-05
101 *51:18 *131:31 0.000877563
102 *55:31 *1419:C 0
103 *56:50 *131:70 6.85904e-05
104 *56:62 *1388:A 0
105 *63:18 *1526:A1 0.000505743
106 *68:16 *1419:C 0.000349458
107 *68:16 *131:74 0.00109792
108 *78:22 *131:60 0.000176806
109 *81:20 *131:31 0.000241205
110 *85:22 *131:76 0.000139083
111 *93:20 *131:125 0.000264774
112 *94:10 *1524:A2 1.80232e-05
113 *97:12 *131:62 0.000513597
114 *120:33 *1524:A2 7.72262e-05
115 *120:33 *131:76 0.000583065
*RES
1 *1387:X *131:6 13.8 
2 *131:6 *131:8 7.71429 
3 *131:8 *1522:A1 28.5143 
4 *131:8 *131:31 47.1786 
5 *131:31 *1526:A1 20.1036 
6 *131:6 *131:48 30.2232 
7 *131:48 *131:60 47.0653 
8 *131:60 *131:62 26 
9 *131:62 *131:70 13.625 
10 *131:70 *131:74 17.7679 
11 *131:74 *131:76 19.5536 
12 *131:76 *1524:A2 20.6214 
13 *131:76 *131:95 14.5 
14 *131:95 *1388:A 20.55 
15 *131:95 *1459:A 9.3 
16 *131:74 *131:119 21.75 
17 *131:119 *131:125 42.3036 
18 *131:125 *1523:A1 9.3 
19 *131:70 *1419:C 33.2286 
20 *131:62 *1458:B1 9.3 
21 *131:60 *1527:A 9.72857 
22 *131:48 *1426:A 17.6839 
*END

*D_NET *132 0.0137054
*CONN
*I *1403:A I *D sky130_fd_sc_hd__xnor2_4
*I *1388:Y O *D sky130_fd_sc_hd__nand2_2
*CAP
1 *1403:A 4.7907e-05
2 *1388:Y 0.000172287
3 *132:14 0.0044555
4 *132:12 0.00457988
5 *1403:A *1403:B 0.000149641
6 *1403:A *192:28 0.000149641
7 *132:12 *181:87 0
8 *132:12 *207:10 9.67754e-05
9 *132:14 *137:55 0.000400342
10 *132:14 *188:69 0.000221498
11 *1459:B *132:14 0.0030975
12 *1459:C *132:12 7.6644e-05
13 *39:20 *132:12 0.00010252
14 *94:10 *132:14 0.000155273
*RES
1 *1388:Y *132:12 22.1036 
2 *132:12 *132:14 54.75 
3 *132:14 *1403:A 20.2464 
*END

*D_NET *133 0.0580837
*CONN
*I *1523:A2 I *D sky130_fd_sc_hd__o22a_1
*I *1399:A1 I *D sky130_fd_sc_hd__a22oi_4
*I *1395:B2 I *D sky130_fd_sc_hd__a22o_1
*I *1457:B1 I *D sky130_fd_sc_hd__a21oi_1
*I *1419:D I *D sky130_fd_sc_hd__and4_2
*I *1524:B1 I *D sky130_fd_sc_hd__a22o_1
*I *1526:A2 I *D sky130_fd_sc_hd__a31o_1
*I *1456:B I *D sky130_fd_sc_hd__and3_1
*I *1391:A I *D sky130_fd_sc_hd__nand2_2
*I *1522:A2 I *D sky130_fd_sc_hd__a21oi_2
*I *1389:X O *D sky130_fd_sc_hd__buf_4
*CAP
1 *1523:A2 0.000606654
2 *1399:A1 0.00199715
3 *1395:B2 0
4 *1457:B1 8.55384e-05
5 *1419:D 0
6 *1524:B1 7.25026e-05
7 *1526:A2 0
8 *1456:B 0.000636815
9 *1391:A 2.23854e-05
10 *1522:A2 0.000326016
11 *1389:X 0.000207231
12 *133:162 0.00399877
13 *133:146 0.00304543
14 *133:137 0.00092482
15 *133:117 0.000513437
16 *133:90 0.00146725
17 *133:75 0.000895703
18 *133:60 0.000735625
19 *133:58 0.00283105
20 *133:44 0.00285504
21 *133:38 0.00206772
22 *133:20 0.00255114
23 *133:18 0.00145608
24 *133:12 0.000921452
25 *1399:A1 *1399:A2 1.28239e-05
26 *1399:A1 *1399:B1 0.00289694
27 *1399:A1 *155:20 0.000145343
28 *1456:B *1456:A 4.82947e-05
29 *1457:B1 *201:71 0.000115482
30 *1522:A2 *1536:A1 0.000777603
31 *1522:A2 *134:150 2.31791e-05
32 *1522:A2 *188:18 0
33 *1523:A2 *208:10 0.00158292
34 *1524:B1 *1524:A1 2.59355e-05
35 *133:12 *1483:A 0.000148293
36 *133:12 *1535:A1 6.12408e-05
37 *133:12 *201:23 0.000139907
38 *133:18 *1424:A 0.000111164
39 *133:18 *1535:A1 2.46318e-05
40 *133:18 *188:96 4.00025e-05
41 *133:18 *230:10 8.74872e-05
42 *133:20 *1424:A 0.000216639
43 *133:20 *230:10 3.36969e-05
44 *133:20 *230:18 0.00111648
45 *133:38 *1447:C1 0.00107664
46 *133:38 *1557:B2 9.96238e-05
47 *133:38 *183:180 0.000263548
48 *133:38 *188:96 7.2252e-05
49 *133:38 *210:52 0
50 *133:44 *181:115 0.000353908
51 *133:44 *201:49 9.57761e-06
52 *133:44 *227:23 0
53 *133:44 *227:45 0.000202458
54 *133:58 *1481:A2 4.6361e-05
55 *133:58 *201:49 0.000321935
56 *133:60 *1587:A 0.000141734
57 *133:60 *135:18 0.000207573
58 *133:60 *213:30 0.00137236
59 *133:75 *135:18 2.77258e-05
60 *133:75 *213:30 0.000139907
61 *133:90 *213:30 0.000229456
62 *133:90 *213:32 0.00250749
63 *133:117 *201:71 0.000891664
64 *133:137 *1395:A1 0.000207928
65 *133:137 *1535:A1 6.55574e-05
66 *133:137 *225:84 0.000147246
67 *133:146 *208:10 0
68 *133:146 *225:84 1.578e-05
69 *133:146 *225:103 0.000411294
70 *133:162 *1394:B 0
71 *133:162 *1493:B 0.000106455
72 *133:162 *1518:A2 0
73 *133:162 *137:131 4.04969e-05
74 *133:162 *149:48 0.00017133
75 *133:162 *149:61 9.22103e-06
76 *133:162 *196:114 2.8266e-06
77 *133:162 *225:103 0.00199668
78 out[6] *1522:A2 2.06178e-05
79 *1419:C *1457:B1 0.000186765
80 *1459:B *1524:B1 0.000137561
81 *1491:A_N *133:44 0.000193234
82 *1498:B *133:12 9.90431e-05
83 *1510:C *133:44 3.34295e-05
84 *1516:A1 *133:137 0.000202212
85 *1524:A2 *1524:B1 1.96715e-05
86 *1526:A1 *133:58 0.000269801
87 *1531:D_N *133:58 0.00167393
88 *1559:A3 *133:38 6.57032e-05
89 *41:10 *133:18 0.000142728
90 *41:10 *133:20 0.00106579
91 *41:10 *133:38 0.000487308
92 *41:27 *133:18 0.000191403
93 *50:10 *1522:A2 0.000437737
94 *51:18 *133:58 0.000228792
95 *51:18 *133:60 0.000351521
96 *52:24 *133:38 0.000114915
97 *53:28 *133:18 0.000471397
98 *53:28 *133:20 0.000177618
99 *53:28 *133:137 0.000148152
100 *53:32 *133:44 9.53706e-05
101 *53:107 *133:137 0.000186425
102 *62:12 *133:90 0.00167186
103 *63:18 *133:44 0.000397451
104 *63:18 *133:58 1.10868e-05
105 *67:24 *133:162 1.02504e-05
106 *71:8 *133:12 0.000180777
107 *89:12 *1523:A2 0
108 *89:12 *133:137 0
109 *89:12 *133:146 0
110 *93:20 *1523:A2 8.15476e-05
111 *97:20 *133:38 0.00027303
112 *97:20 *133:44 0.000752913
113 *124:12 *133:38 2.88018e-06
114 *128:8 *133:20 0.00047591
115 *128:8 *133:38 0.000199881
116 *130:87 *133:38 6.00647e-05
*RES
1 *1389:X *133:12 19.3625 
2 *133:12 *133:18 8.13393 
3 *133:18 *133:20 26.8393 
4 *133:20 *133:38 45.6367 
5 *133:38 *133:44 18.3125 
6 *133:44 *133:58 45.0179 
7 *133:58 *133:60 13.6786 
8 *133:60 *1522:A2 28.9786 
9 *133:60 *133:75 1.35714 
10 *133:75 *1391:A 9.72857 
11 *133:75 *133:90 43.5893 
12 *133:90 *1456:B 15.9964 
13 *133:44 *1526:A2 9.3 
14 *133:20 *1524:B1 15.5857 
15 *133:18 *133:117 13.25 
16 *133:117 *1419:D 9.3 
17 *133:117 *1457:B1 11.9071 
18 *133:12 *133:137 12.8661 
19 *133:137 *1395:B2 13.8 
20 *133:137 *133:146 10.4464 
21 *133:146 *133:162 46.8036 
22 *133:162 *1399:A1 43.3 
23 *133:146 *1523:A2 30.6571 
*END

*D_NET *134 0.043251
*CONN
*I *1391:B I *D sky130_fd_sc_hd__nand2_2
*I *1536:A1 I *D sky130_fd_sc_hd__o22a_1
*I *1408:B1 I *D sky130_fd_sc_hd__a22o_1
*I *1538:A1 I *D sky130_fd_sc_hd__a311o_1
*I *1455:B1 I *D sky130_fd_sc_hd__o21ai_4
*I *1428:A I *D sky130_fd_sc_hd__nand2_2
*I *1537:A I *D sky130_fd_sc_hd__nor2_1
*I *1395:A1 I *D sky130_fd_sc_hd__a22o_1
*I *1535:A1 I *D sky130_fd_sc_hd__a21oi_2
*I *1462:A I *D sky130_fd_sc_hd__or3_1
*I *1390:X O *D sky130_fd_sc_hd__buf_4
*CAP
1 *1391:B 0
2 *1536:A1 0.00052871
3 *1408:B1 0
4 *1538:A1 0.000436184
5 *1455:B1 0.000920859
6 *1428:A 0.00101115
7 *1537:A 0
8 *1395:A1 0.000526324
9 *1535:A1 0.000228403
10 *1462:A 2.28453e-05
11 *1390:X 0.000318196
12 *134:150 0.000900668
13 *134:111 0.0013844
14 *134:109 0.000888965
15 *134:107 0.00123356
16 *134:105 0.00218855
17 *134:33 0.0016668
18 *134:29 0.00217982
19 *134:23 0.00294253
20 *134:12 0.00144781
21 *134:6 0.00326807
22 *1395:A1 *210:6 0.000312222
23 *1428:A *1450:A2 0.000497366
24 *1428:A *142:170 0
25 *1428:A *172:16 9.66977e-05
26 *1428:A *194:16 0.000564328
27 *1428:A *198:12 9.25616e-05
28 *1455:B1 *1408:B2 2.41665e-05
29 *1455:B1 *152:16 5.33005e-05
30 *1455:B1 *199:16 2.39198e-05
31 *1455:B1 *199:29 3.20759e-05
32 *1455:B1 *201:49 0.00137905
33 *1462:A *1462:B 6.05161e-06
34 *1535:A1 *1535:A2 2.27416e-05
35 *1535:A1 *1535:B1 0.000117004
36 *1535:A1 *136:44 2.33102e-05
37 *1535:A1 *188:96 3.17148e-05
38 *1538:A1 *1538:A2 5.52238e-05
39 *1538:A1 *152:16 4.46186e-06
40 *1538:A1 *178:8 2.11336e-05
41 *1538:A1 *178:12 0.000142824
42 *1538:A1 *220:34 9.03974e-05
43 *134:6 *1390:A 0.00043284
44 *134:12 *1390:A 1.24368e-05
45 *134:12 *1412:A 0
46 *134:12 *1468:A 0.000401639
47 *134:12 *142:94 0.000271702
48 *134:12 *198:32 8.40473e-05
49 *134:23 *1411:A1 0
50 *134:23 *1412:A 0
51 *134:23 *198:12 0.000603585
52 *134:23 *198:32 1.37043e-05
53 *134:29 *183:70 0.00092954
54 *134:29 *208:71 0.00153874
55 *134:33 *1479:A 0.000302748
56 *134:33 *180:23 0.000147142
57 *134:105 *1500:B 0.000172773
58 *134:105 *142:94 0.000743644
59 *134:105 *142:112 0.000229
60 *134:105 *183:131 9.55068e-05
61 *134:105 *187:28 0.00104162
62 *134:105 *188:16 0.000644399
63 *134:105 *188:18 0.00045447
64 *134:105 *227:102 0.000129366
65 *134:105 *228:66 0.000160522
66 *134:109 *1408:B2 5.03772e-05
67 *134:109 *135:18 1.21258e-05
68 *134:109 *218:18 0.00137346
69 *134:111 *1408:B2 2.89016e-05
70 *134:150 *218:18 8.27532e-05
71 *1476:A *1538:A1 0.00027495
72 *1478:C *1462:A 5.29366e-05
73 *1505:A1 *134:105 0
74 *1514:C1 *134:105 2.11419e-05
75 *1522:A2 *1536:A1 0.000777603
76 *1522:A2 *134:150 2.31791e-05
77 *1538:B1 *1538:A1 8.6229e-06
78 *36:16 *134:23 0.000138878
79 *40:14 *134:33 5.33005e-05
80 *47:45 *134:12 0.000394129
81 *50:10 *1536:A1 0.000105225
82 *50:29 *1536:A1 0
83 *50:29 *134:150 0
84 *53:8 *134:33 0.000835443
85 *66:12 *1428:A 0
86 *74:28 *134:105 0
87 *81:20 *1455:B1 0.000481512
88 *85:22 *134:105 0.00110236
89 *89:12 *1395:A1 0.000356623
90 *89:12 *1535:A1 0.000185617
91 *107:12 *1455:B1 0.000606641
92 *116:28 *134:29 0.00111761
93 *116:28 *134:33 0.000262764
94 *118:14 *1538:A1 0.000451696
95 *131:8 *134:105 0
96 *131:48 *134:105 0
97 *133:12 *1535:A1 6.12408e-05
98 *133:18 *1535:A1 2.46318e-05
99 *133:137 *1395:A1 0.000207928
100 *133:137 *1535:A1 6.55574e-05
*RES
1 *1390:X *134:6 14.7643 
2 *134:6 *134:12 23.6964 
3 *134:12 *1462:A 14.3357 
4 *134:12 *134:23 15.3036 
5 *134:23 *134:29 35.0357 
6 *134:29 *134:33 24.75 
7 *134:33 *1535:A1 20.3893 
8 *134:33 *1395:A1 26.7643 
9 *134:29 *1537:A 9.3 
10 *134:23 *1428:A 34.7464 
11 *134:6 *134:105 48.1847 
12 *134:105 *134:107 4.5 
13 *134:107 *134:109 17.7857 
14 *134:109 *134:111 0.535714 
15 *134:111 *1455:B1 39.9964 
16 *134:111 *1538:A1 30.6214 
17 *134:109 *1408:B1 9.3 
18 *134:107 *134:150 10.2679 
19 *134:150 *1536:A1 26.9071 
20 *134:150 *1391:B 13.8 
*END

*D_NET *135 0.0324809
*CONN
*I *1427:C I *D sky130_fd_sc_hd__and3_2
*I *1492:A1 I *D sky130_fd_sc_hd__a21oi_1
*I *1396:A1 I *D sky130_fd_sc_hd__o21ai_4
*I *1391:Y O *D sky130_fd_sc_hd__nand2_2
*CAP
1 *1427:C 0
2 *1492:A1 0.000429727
3 *1396:A1 0
4 *1391:Y 0.000910853
5 *135:57 0.00146503
6 *135:51 0.00175978
7 *135:36 0.00189209
8 *135:32 0.00386065
9 *135:18 0.00215494
10 *1492:A1 *1492:B1 0.00163987
11 *1492:A1 *182:8 0.000607131
12 *135:18 *1408:B2 0.000190919
13 *135:18 *1587:A 7.8195e-05
14 *135:18 *178:12 0.00024292
15 *135:32 *1387:A 0.000123762
16 *135:32 *1408:A1 0.00018348
17 *135:32 *1435:A 0.000495224
18 *135:32 *152:16 0.000896339
19 *135:32 *158:14 0.000935292
20 *135:32 *194:49 0.000495224
21 *135:32 *205:21 0.00011186
22 *135:36 *1396:A2 9.18429e-05
23 *135:36 *1436:A 2.23592e-05
24 *135:36 *140:8 0.00209649
25 *135:36 *180:8 2.59355e-05
26 *135:36 *209:28 0.000440836
27 *135:51 *1435:A 0.000949954
28 *135:51 *1442:B 0.000374124
29 *135:51 *1443:C_N 0.000102571
30 *135:51 *1502:C1 1.55629e-05
31 *135:51 *173:37 0.00110711
32 *135:51 *194:49 0.000145726
33 *135:57 *1431:B1 0
34 *135:57 *1442:B 0.000328477
35 *135:57 *1512:B1 0.000297335
36 *135:57 *136:73 0.000146631
37 *135:57 *149:63 0
38 *135:57 *149:67 0.000133358
39 *135:57 *186:59 0.00100566
40 *1487:A *135:32 0.000357944
41 *35:55 *135:32 0.000385703
42 *35:71 *135:57 6.79303e-05
43 *35:84 *135:57 0.000488627
44 *49:71 *135:18 1.37292e-05
45 *51:18 *135:18 0.00132897
46 *60:43 *135:57 0
47 *65:12 *1492:A1 2.59355e-05
48 *88:24 *135:51 0.00010283
49 *97:16 *135:36 0.000442147
50 *100:12 *135:18 0.000103285
51 *118:14 *135:32 0.00165891
52 *131:31 *135:18 0.00150025
53 *133:60 *135:18 0.000207573
54 *133:75 *135:18 2.77258e-05
55 *134:109 *135:18 1.21258e-05
*RES
1 *1391:Y *135:18 49.2286 
2 *135:18 *135:32 47.9107 
3 *135:32 *135:36 42.4107 
4 *135:36 *1396:A1 9.3 
5 *135:32 *135:51 26.5714 
6 *135:51 *135:57 37.6607 
7 *135:57 *1492:A1 25.8536 
8 *135:51 *1427:C 9.3 
*END

*D_NET *136 0.0479295
*CONN
*I *1394:A I *D sky130_fd_sc_hd__nand2_2
*I *1395:A2 I *D sky130_fd_sc_hd__a22o_1
*I *1453:B1 I *D sky130_fd_sc_hd__a21oi_2
*I *1410:A2 I *D sky130_fd_sc_hd__a31o_1
*I *1536:A2 I *D sky130_fd_sc_hd__o22a_1
*I *1538:A2 I *D sky130_fd_sc_hd__a311o_1
*I *1427:A I *D sky130_fd_sc_hd__and3_2
*I *1535:A2 I *D sky130_fd_sc_hd__a21oi_2
*I *1416:B I *D sky130_fd_sc_hd__nand2_1
*I *1465:A1 I *D sky130_fd_sc_hd__o21a_1
*I *1392:X O *D sky130_fd_sc_hd__buf_4
*CAP
1 *1394:A 0.000163701
2 *1395:A2 9.60533e-05
3 *1453:B1 8.77805e-05
4 *1410:A2 4.03655e-05
5 *1536:A2 0.000182793
6 *1538:A2 0.000825575
7 *1427:A 0
8 *1535:A2 4.46206e-05
9 *1416:B 9.66919e-05
10 *1465:A1 0
11 *1392:X 0.000196358
12 *136:150 0.000603026
13 *136:108 0.0024467
14 *136:100 0.00173641
15 *136:92 0.00157153
16 *136:73 0.00158374
17 *136:69 0.0031782
18 *136:61 0.00361029
19 *136:44 0.00122048
20 *136:28 0.000994262
21 *136:16 0.00129044
22 *136:12 0.00112518
23 *1394:A *138:10 0.000133553
24 *1394:A *208:10 0.000545369
25 *1394:A *209:10 0.000310613
26 *1395:A2 *210:6 9.31011e-05
27 *1410:A2 *1426:B 1.98839e-05
28 *1410:A2 *1426:C 9.60939e-05
29 *1416:B *1416:A 7.64988e-05
30 *1416:B *1520:A1 9.66977e-05
31 *1453:B1 *224:23 5.49544e-05
32 *1538:A2 *1553:B 0
33 *1538:A2 *178:8 3.88207e-05
34 *1538:A2 *213:26 0.00019529
35 *136:12 *1392:A 0.000227014
36 *136:16 *207:23 0.000694783
37 *136:16 *219:22 0.000181799
38 *136:28 *1465:B1 0.000122228
39 *136:28 *1507:B1 2.17276e-05
40 *136:28 *192:32 8.56654e-05
41 *136:28 *193:18 0.000114758
42 *136:28 *207:10 0.00071534
43 *136:28 *207:23 0.00112986
44 *136:28 *219:22 0.000614402
45 *136:44 *1535:B1 1.22751e-05
46 *136:61 *1535:B1 3.80953e-06
47 *136:61 *208:14 0.000128154
48 *136:61 *209:16 0.000126439
49 *136:61 *225:84 0.000262498
50 *136:69 *149:67 8.15095e-05
51 *136:69 *186:59 7.29667e-05
52 *136:73 *1442:B 6.18969e-06
53 *136:73 *149:67 0.000662522
54 *136:73 *149:73 4.21517e-05
55 *136:73 *186:59 0.00038078
56 *136:92 *1443:C_N 0.000262076
57 *136:92 *143:30 0.00103055
58 *136:92 *167:24 2.5017e-05
59 *136:92 *183:22 0.000233053
60 *136:92 *192:28 0.000991512
61 *136:92 *194:24 0.000209584
62 *136:92 *196:68 0.000958156
63 *136:100 *142:112 0.000198705
64 *136:100 *153:39 0.000661261
65 *136:108 *1426:C 0.000146474
66 *136:108 *1553:B 0
67 *136:108 *142:112 0.00020808
68 *136:108 *217:16 0.000336637
69 *136:108 *227:102 0.000405982
70 *136:150 *208:10 0.000243071
71 *136:150 *208:14 0.000836921
72 *136:150 *209:10 0.00090628
73 *136:150 *209:16 0.00017309
74 *1426:A *1410:A2 7.48091e-05
75 *1464:A2 *136:69 0.00202912
76 *1486:A *136:108 0.000341691
77 *1502:A2 *136:100 1.18451e-05
78 *1502:A2 *136:108 0.000440608
79 *1515:A1 *136:92 2.67386e-05
80 *1522:A1 *136:108 0
81 *1535:A1 *1535:A2 2.27416e-05
82 *1535:A1 *136:44 2.33102e-05
83 *1538:A1 *1538:A2 5.52238e-05
84 *1538:B1 *1536:A2 0.00053279
85 *1538:B1 *1538:A2 0.000572324
86 *1540:A3 *136:92 0.000110498
87 *1550:A1 *136:69 0.000123251
88 *39:20 *136:28 0.000220102
89 *41:27 *136:61 8.11273e-05
90 *41:27 *136:69 0.000120587
91 *41:44 *136:69 0.00030615
92 *45:33 *136:108 0
93 *46:10 *136:92 0.000396989
94 *49:55 *136:92 0.000130443
95 *51:12 *136:108 0.000317587
96 *59:31 *136:100 0.000348207
97 *60:26 *136:73 0.000107807
98 *79:18 *136:100 2.79421e-05
99 *104:30 *1536:A2 0.000651423
100 *104:30 *1538:A2 0.000575713
101 *109:20 *136:28 0.000638462
102 *121:10 *136:12 0.000120645
103 *121:10 *136:16 0.000685533
104 *121:10 *136:28 0.00198934
105 *127:14 *136:92 0.000341154
106 *131:119 *1416:B 9.0331e-05
107 *135:57 *136:73 0.000146631
*RES
1 *1392:X *136:12 22.5143 
2 *136:12 *136:16 13.4286 
3 *136:16 *136:28 41.3036 
4 *136:28 *1465:A1 9.3 
5 *136:16 *1416:B 16.3893 
6 *136:12 *136:44 7.92857 
7 *136:44 *1535:A2 10.6929 
8 *136:44 *136:61 11.1964 
9 *136:61 *136:69 45.8929 
10 *136:69 *136:73 13.7321 
11 *136:73 *1427:A 9.3 
12 *136:73 *136:92 46.8173 
13 *136:92 *136:100 17.0179 
14 *136:100 *136:108 41.1071 
15 *136:108 *1538:A2 35.8893 
16 *136:108 *1536:A2 16.4071 
17 *136:100 *1410:A2 15.1571 
18 *136:69 *1453:B1 15.1571 
19 *136:61 *136:150 14.0893 
20 *136:150 *1395:A2 15.5679 
21 *136:150 *1394:A 20.9071 
*END

*D_NET *137 0.0494252
*CONN
*I *1546:A2 I *D sky130_fd_sc_hd__o22a_1
*I *1545:A2 I *D sky130_fd_sc_hd__a21oi_1
*I *1394:B I *D sky130_fd_sc_hd__nand2_2
*I *1493:B I *D sky130_fd_sc_hd__nand3_2
*I *1494:A2 I *D sky130_fd_sc_hd__a21o_1
*I *1547:A I *D sky130_fd_sc_hd__nor2_1
*I *1427:B I *D sky130_fd_sc_hd__and3_2
*I *1548:A2 I *D sky130_fd_sc_hd__a311o_1
*I *1468:A I *D sky130_fd_sc_hd__nor2_2
*I *1467:A I *D sky130_fd_sc_hd__nand2_2
*I *1393:X O *D sky130_fd_sc_hd__buf_4
*CAP
1 *1546:A2 0
2 *1545:A2 2.59948e-05
3 *1394:B 0.00123061
4 *1493:B 0.00146159
5 *1494:A2 0
6 *1547:A 0.000356795
7 *1427:B 4.28978e-05
8 *1548:A2 0.000252597
9 *1468:A 0.000340853
10 *1467:A 0.00222961
11 *1393:X 0.000762867
12 *137:133 0.00146159
13 *137:131 0.00195824
14 *137:112 0.00167753
15 *137:63 0.00105041
16 *137:59 0.00167753
17 *137:55 0.00278268
18 *137:43 0.00180274
19 *137:28 0.00356466
20 *137:16 0.00133307
21 *1394:B *1506:A 0
22 *1394:B *1506:B 0
23 *1394:B *1518:A1 0.000175493
24 *1394:B *1518:A2 9.90367e-05
25 *1394:B *1518:C1 5.52302e-05
26 *1394:B *138:10 6.0038e-05
27 *1394:B *208:10 0
28 *1427:B *1442:B 7.79937e-05
29 *1427:B *149:73 2.44568e-05
30 *1467:A *1417:B 0.000730828
31 *1468:A *198:32 0.000400122
32 *1493:B *1518:A1 0.000113995
33 *1493:B *149:61 0.00176169
34 *1493:B *212:22 0.00192333
35 *1545:A2 *149:73 2.59355e-05
36 *1547:A *1547:B 5.49995e-05
37 *1548:A2 *1399:A2 6.7665e-05
38 *1548:A2 *1548:A3 1.00332e-05
39 *1548:A2 *170:31 0
40 *1548:A2 *222:66 0.000310293
41 *137:16 *1546:B1 5.33005e-05
42 *137:16 *1558:A1 0.000479713
43 *137:16 *168:36 0.000723253
44 *137:16 *186:32 0
45 *137:28 *1546:A1 0.00129268
46 *137:28 *1558:A1 0.000137561
47 *137:28 *149:87 4.80729e-05
48 *137:28 *158:43 0.000750365
49 *137:28 *176:18 0.000258082
50 *137:28 *188:77 0.000315887
51 *137:28 *196:18 2.571e-05
52 *137:28 *197:37 0.000136341
53 *137:28 *226:48 5.49489e-05
54 *137:43 *1417:B 8.43535e-06
55 *137:43 *1426:B 0.0002897
56 *137:43 *186:18 0.000508844
57 *137:43 *220:22 0.000697269
58 *137:55 *1425:A_N 0.000938277
59 *137:55 *140:24 0.000149543
60 *137:55 *171:16 0.000229818
61 *137:55 *185:10 0.000377762
62 *137:55 *186:18 0.000194882
63 *137:55 *197:37 0.000376818
64 *137:55 *220:16 8.98764e-05
65 *137:55 *220:22 4.26765e-05
66 *137:59 *1451:B 0.000409822
67 *137:59 *141:64 0.000392856
68 *137:59 *194:24 0.000160974
69 *137:63 *1443:B 3.42184e-05
70 *137:63 *194:24 0.000306154
71 *137:112 *1421:A 4.22135e-06
72 *137:112 *1432:A 0.000554813
73 *137:112 *155:20 0.000207025
74 *137:112 *171:16 3.28096e-05
75 *137:112 *172:24 0.000441796
76 *137:112 *185:10 0.00109416
77 *137:112 *209:85 0.00026139
78 *137:131 *1471:A2 0
79 *137:131 *138:35 6.09256e-05
80 *137:131 *155:20 0.000185417
81 *137:131 *168:16 1.17968e-05
82 *137:131 *172:24 0.000738684
83 *137:131 *185:10 6.86117e-05
84 *137:131 *196:114 0
85 *137:131 *209:85 9.15842e-06
86 *1467:B *1467:A 8.55871e-05
87 *1494:B1 *1493:B 0.000285666
88 *1518:B1 *1394:B 9.90367e-05
89 *1529:B *1467:A 0.00016968
90 *1548:B1 *1548:A2 3.4846e-06
91 *1551:B *1545:A2 1.58163e-05
92 *42:8 *1468:A 0.000259273
93 *42:10 *137:55 1.09546e-05
94 *45:21 *137:131 0.000945493
95 *47:45 *1548:A2 5.36e-05
96 *47:45 *137:63 9.35307e-05
97 *49:12 *1548:A2 0.000433797
98 *49:12 *137:63 0.000931329
99 *53:74 *137:16 9.31415e-05
100 *60:43 *1394:B 1.02936e-05
101 *61:18 *1547:A 5.20597e-05
102 *67:24 *137:131 4.51076e-05
103 *89:8 *1394:B 0.000752659
104 *94:10 *137:55 0.000402798
105 *98:8 *1547:A 9.58126e-05
106 *113:16 *137:16 5.50052e-05
107 *114:8 *137:16 5.2794e-05
108 *114:8 *137:28 6.05161e-06
109 *129:8 *1547:A 0.000301094
110 *130:67 *137:43 0.000164129
111 *132:14 *137:55 0.000400342
112 *133:162 *1394:B 0
113 *133:162 *1493:B 0.000106455
114 *133:162 *137:131 4.04969e-05
115 *134:12 *1468:A 0.000401639
*RES
1 *1393:X *137:16 34.4607 
2 *137:16 *137:28 28.75 
3 *137:28 *1467:A 36.4429 
4 *137:28 *137:43 19.6071 
5 *137:43 *137:55 39.7679 
6 *137:55 *137:59 19.4107 
7 *137:59 *137:63 11.2321 
8 *137:63 *1468:A 27.425 
9 *137:63 *1548:A2 25.4429 
10 *137:59 *1427:B 19.3357 
11 *137:55 *137:112 19.1071 
12 *137:112 *1547:A 19.425 
13 *137:112 *137:131 18.9821 
14 *137:131 *137:133 4.5 
15 *137:133 *1494:A2 9.3 
16 *137:133 *1493:B 45.69 
17 *137:131 *1394:B 49.6571 
18 *137:43 *1545:A2 14.3357 
19 *137:16 *1546:A2 9.3 
*END

*D_NET *138 0.0206854
*CONN
*I *1492:B1 I *D sky130_fd_sc_hd__a21oi_1
*I *1396:A2 I *D sky130_fd_sc_hd__o21ai_4
*I *1394:Y O *D sky130_fd_sc_hd__nand2_2
*CAP
1 *1492:B1 0.0015987
2 *1396:A2 0.000135725
3 *1394:Y 0.000188558
4 *138:35 0.00211694
5 *138:16 0.00144443
6 *138:14 0.0013787
7 *138:10 0.000776786
8 *1492:B1 *182:8 3.22663e-05
9 *138:10 *1506:A 0
10 *138:10 *208:10 2.00751e-05
11 *138:10 *209:10 9.91086e-05
12 *138:14 *168:8 5.56679e-05
13 *138:14 *203:37 0.000175892
14 *138:16 *139:12 0.00326531
15 *138:16 *193:8 0
16 *138:16 *208:10 0.000444338
17 *138:16 *208:14 0.00259073
18 *138:16 *225:84 0
19 *138:16 *225:103 0
20 *138:35 *1471:A2 0.000195555
21 *138:35 *168:8 0.000650671
22 *138:35 *203:37 0.0018092
23 *1394:A *138:10 0.000133553
24 *1394:B *138:10 6.0038e-05
25 *1492:A1 *1492:B1 0.00163987
26 *1504:A2 *138:16 9.82592e-05
27 *1516:A2 *138:16 0.000432645
28 *35:84 *1492:B1 0.000228337
29 *37:31 *1492:B1 0.000523969
30 *102:12 *1492:B1 0.000391174
31 *122:20 *138:16 4.61002e-05
32 *135:36 *1396:A2 9.18429e-05
33 *137:131 *138:35 6.09256e-05
*RES
1 *1394:Y *138:10 23.2821 
2 *138:10 *138:14 6.26786 
3 *138:14 *138:16 46.2679 
4 *138:16 *1396:A2 15.9964 
5 *138:10 *138:35 28.9286 
6 *138:35 *1492:B1 41.8714 
*END

*D_NET *139 0.0083644
*CONN
*I *1396:B1 I *D sky130_fd_sc_hd__o21ai_4
*I *1395:X O *D sky130_fd_sc_hd__a22o_1
*CAP
1 *1396:B1 0
2 *1395:X 4.36033e-05
3 *139:12 0.00124351
4 *139:8 0.00128712
5 *139:8 *210:6 5.33005e-05
6 *139:12 *225:84 0.000221827
7 *1467:B *139:12 0.000708382
8 *1504:A2 *139:12 1.3142e-05
9 *1516:A2 *139:12 0.000151733
10 *40:14 *139:12 0.000996307
11 *53:28 *139:12 0.000380162
12 *138:16 *139:12 0.00326531
*RES
1 *1395:X *139:8 14.3357 
2 *139:8 *139:12 47.4286 
3 *139:12 *1396:B1 9.3 
*END

*D_NET *140 0.0143832
*CONN
*I *1425:A_N I *D sky130_fd_sc_hd__and2b_2
*I *1402:A I *D sky130_fd_sc_hd__xnor2_4
*I *1396:Y O *D sky130_fd_sc_hd__o21ai_4
*CAP
1 *1425:A_N 0.000799192
2 *1402:A 0
3 *1396:Y 0.00118035
4 *140:24 0.00151572
5 *140:8 0.00349527
6 *1425:A_N *1429:A 0.000160588
7 *1425:A_N *169:10 5.33005e-05
8 *1425:A_N *171:16 0.000606259
9 *1425:A_N *179:10 0.000382053
10 *1425:A_N *198:32 0.000135968
11 *140:24 *1429:A 0.000424102
12 *140:24 *1446:A1 4.60497e-05
13 *140:24 *1446:B2 0
14 *140:24 *142:123 0.000520646
15 *140:24 *197:37 0.000309511
16 *140:24 *198:32 0.000752145
17 *140:24 *206:66 0.000550509
18 *140:24 *227:81 9.11048e-06
19 *1529:B *140:24 0.000204066
20 *1559:B1 *140:24 3.30575e-05
21 *63:10 *140:24 2.09607e-05
22 *135:36 *140:8 0.00209649
23 *137:55 *1425:A_N 0.000938277
24 *137:55 *140:24 0.000149543
*RES
1 *1396:Y *140:8 34.4607 
2 *140:8 *140:24 46.6964 
3 *140:24 *1402:A 9.3 
4 *140:8 *1425:A_N 33.5857 
*END

*D_NET *141 0.0217114
*CONN
*I *1406:B I *D sky130_fd_sc_hd__or3_4
*I *1401:A1 I *D sky130_fd_sc_hd__o21bai_4
*I *1407:B1 I *D sky130_fd_sc_hd__o21ai_2
*I *1397:Y O *D sky130_fd_sc_hd__nand2_2
*CAP
1 *1406:B 0.00179919
2 *1401:A1 0.000140297
3 *1407:B1 0.000110603
4 *1397:Y 0.00018038
5 *141:64 0.00194035
6 *141:28 0.000562414
7 *141:24 0.00225166
8 *141:10 0.00226168
9 *1401:A1 *1407:A2 3.12694e-05
10 *1401:A1 *206:66 0.000262679
11 *1406:B *1520:A2 0.000358774
12 *1406:B *171:16 0.000893105
13 *1406:B *197:35 0.000687326
14 *1407:B1 *1401:B1_N 5.49995e-05
15 *1407:B1 *1407:A2 0.000161197
16 *1407:B1 *145:10 7.02212e-05
17 *1407:B1 *206:66 2.05612e-05
18 *141:10 *1421:B 6.47405e-05
19 *141:10 *169:22 0.000295938
20 *141:10 *202:35 4.96113e-05
21 *141:24 *1435:B 0.000551554
22 *141:24 *152:16 0.000109065
23 *141:24 *158:14 0.00145373
24 *141:24 *169:22 0.000614219
25 *141:24 *177:24 4.8817e-05
26 *141:24 *194:49 0.000787066
27 *141:28 *196:47 0.000339645
28 *141:64 *1451:B 0.000351157
29 *141:64 *186:18 0.000121433
30 *141:64 *194:24 5.33005e-05
31 *141:64 *220:16 0.00011991
32 *1487:A *141:24 0.000191774
33 *1501:C_N *1401:A1 1.07719e-05
34 *1540:A3 *141:28 0.000134326
35 *1548:B1 *141:10 9.66977e-05
36 *35:63 *141:24 0.000678061
37 *44:22 *141:10 0.00010687
38 *44:22 *141:24 0.000159756
39 *60:26 *141:24 1.01737e-05
40 *69:20 *1406:B 0.00185263
41 *72:29 *1407:B1 5.65899e-05
42 *72:29 *141:28 0.000785503
43 *80:10 *1407:B1 5.4923e-05
44 *80:10 *141:28 0.000142577
45 *118:8 *141:24 9.41642e-05
46 *118:14 *141:24 3.14003e-05
47 *131:60 *141:24 0.000165467
48 *137:59 *141:64 0.000392856
*RES
1 *1397:Y *141:10 18.8179 
2 *141:10 *141:24 48.7835 
3 *141:24 *141:28 13.7046 
4 *141:28 *1407:B1 17.2643 
5 *141:28 *1401:A1 17.1214 
6 *141:10 *141:64 18.9643 
7 *141:64 *1406:B 44.7464 
*END

*D_NET *142 0.0527285
*CONN
*I *1518:A1 I *D sky130_fd_sc_hd__o211ai_2
*I *1399:B2 I *D sky130_fd_sc_hd__a22oi_4
*I *1456:C I *D sky130_fd_sc_hd__and3_1
*I *1521:A1 I *D sky130_fd_sc_hd__a31o_1
*I *1408:B2 I *D sky130_fd_sc_hd__a22o_1
*I *1460:B_N I *D sky130_fd_sc_hd__or2b_1
*I *1457:A1 I *D sky130_fd_sc_hd__a21oi_1
*I *1419:A I *D sky130_fd_sc_hd__and4_2
*I *1524:A1 I *D sky130_fd_sc_hd__a22o_1
*I *1519:A1 I *D sky130_fd_sc_hd__a31o_1
*I *1398:X O *D sky130_fd_sc_hd__buf_4
*CAP
1 *1518:A1 0.00169259
2 *1399:B2 0
3 *1456:C 0.000169467
4 *1521:A1 0
5 *1408:B2 0.000608467
6 *1460:B_N 0.000142083
7 *1457:A1 5.3893e-05
8 *1419:A 8.69588e-05
9 *1524:A1 0.000399622
10 *1519:A1 0.000547883
11 *1398:X 0
12 *142:170 0.00293801
13 *142:123 0.00117004
14 *142:112 0.00226411
15 *142:94 0.00288707
16 *142:78 0.00279278
17 *142:30 0.00217306
18 *142:18 0.00141367
19 *142:16 0.002723
20 *142:4 0.00295818
21 *1408:B2 *158:43 2.22043e-05
22 *1408:B2 *158:49 8.02536e-05
23 *1408:B2 *201:49 0.00108017
24 *1419:A *1419:B 6.60154e-05
25 *1456:C *1456:A 0.000370798
26 *1457:A1 *223:10 0.000147752
27 *1460:B_N *1469:B 0.000344835
28 *1460:B_N *148:46 2.79421e-05
29 *1518:A1 *1493:A 8.6281e-05
30 *1519:A1 *1413:A1 1.47146e-05
31 *1519:A1 *1519:A2 9.81603e-05
32 *1519:A1 *1519:A3 4.13496e-05
33 *1519:A1 *204:8 5.33005e-05
34 *1524:A1 *164:23 0.00121162
35 *1524:A1 *167:34 0.000250511
36 *1524:A1 *188:96 0.00121228
37 *142:16 *1398:A 5.72432e-05
38 *142:16 *143:52 0.00318392
39 *142:16 *192:28 6.09572e-05
40 *142:16 *197:10 0.00012401
41 *142:18 *143:52 0.000125997
42 *142:30 *1519:A3 0.000547386
43 *142:30 *143:52 0.000220935
44 *142:94 *1390:A 0.000777289
45 *142:94 *1548:A1 0.000131517
46 *142:94 *170:31 0.000340234
47 *142:94 *187:28 0.000109737
48 *142:94 *198:12 2.5858e-05
49 *142:94 *198:32 0.000596272
50 *142:94 *222:66 0.000358194
51 *142:112 *1469:A 0.000431588
52 *142:112 *1469:B 0.00203206
53 *142:112 *183:131 0.000186282
54 *142:112 *187:28 2.14474e-05
55 *142:112 *227:102 0.000597637
56 *142:123 *158:43 0.00032434
57 *142:123 *176:18 0.00015175
58 *142:123 *197:37 0.00074984
59 *142:123 *198:32 0.000109146
60 *142:123 *211:24 1.90936e-05
61 *142:170 *1399:A2 0.000937979
62 *142:170 *1450:A1 0
63 *142:170 *1450:B1 0.000709682
64 *142:170 *1454:C 0.000310294
65 *142:170 *198:12 0.000314742
66 *142:170 *202:48 0.000937979
67 *1394:B *1518:A1 0.000175493
68 *1419:C *1419:A 6.60154e-05
69 *1419:C *1457:A1 0.000146171
70 *1428:A *142:170 0
71 *1455:B1 *1408:B2 2.41665e-05
72 *1459:B *1524:A1 1.21258e-05
73 *1461:C *1460:B_N 4.35306e-05
74 *1461:C *142:112 0.000254514
75 *1493:B *1518:A1 0.000113995
76 *1502:A2 *142:112 5.43059e-05
77 *1509:A2 *1408:B2 7.19848e-05
78 *1519:B1 *1519:A1 0.000857574
79 *1520:B1 *1519:A1 9.58689e-05
80 *1524:A2 *1524:A1 9.58632e-05
81 *1524:B1 *1524:A1 2.59355e-05
82 *1548:C1 *142:94 0.000360845
83 *1548:C1 *142:170 9.15842e-06
84 *30:8 *1456:C 0.000159055
85 *35:55 *142:112 9.58126e-05
86 *36:16 *142:16 0.000260574
87 *36:16 *142:78 8.33853e-05
88 *47:45 *142:94 0
89 *47:45 *142:112 0
90 *52:24 *142:94 5.32001e-06
91 *55:31 *142:30 0.000725589
92 *56:50 *142:30 0
93 *60:43 *1518:A1 0.0017106
94 *63:10 *1408:B2 0
95 *63:10 *142:123 0
96 *65:12 *1518:A1 0
97 *65:12 *142:170 0
98 *66:12 *1518:A1 0
99 *66:12 *142:170 0
100 *131:70 *142:30 0.00021617
101 *134:12 *142:94 0.000271702
102 *134:105 *142:94 0.000743644
103 *134:105 *142:112 0.000229
104 *134:109 *1408:B2 5.03772e-05
105 *134:111 *1408:B2 2.89016e-05
106 *135:18 *1408:B2 0.000190919
107 *136:100 *142:112 0.000198705
108 *136:108 *142:112 0.00020808
109 *140:24 *142:123 0.000520646
*RES
1 *1398:X *142:4 9.3 
2 *142:4 *142:16 45.3036 
3 *142:16 *142:18 1.35714 
4 *142:18 *142:30 31.4286 
5 *142:30 *1519:A1 20.1393 
6 *142:30 *1524:A1 34.8536 
7 *142:18 *1419:A 20.2464 
8 *142:16 *1457:A1 20.2464 
9 *142:4 *142:78 5.46429 
10 *142:78 *142:94 43.5331 
11 *142:94 *142:112 44.2321 
12 *142:112 *1460:B_N 12.7107 
13 *142:112 *142:123 19.5 
14 *142:123 *1408:B2 28.5143 
15 *142:123 *1521:A1 13.8 
16 *142:94 *1456:C 18.3848 
17 *142:78 *142:170 45.8571 
18 *142:170 *1399:B2 13.8 
19 *142:170 *1518:A1 48.5857 
*END

*D_NET *143 0.0292461
*CONN
*I *1406:C I *D sky130_fd_sc_hd__or3_4
*I *1401:A2 I *D sky130_fd_sc_hd__o21bai_4
*I *1407:A2 I *D sky130_fd_sc_hd__o21ai_2
*I *1399:Y O *D sky130_fd_sc_hd__a22oi_4
*CAP
1 *1406:C 7.3175e-05
2 *1401:A2 0
3 *1407:A2 0.000499829
4 *1399:Y 0.00131818
5 *143:52 0.00168015
6 *143:50 0.00160697
7 *143:30 0.00125068
8 *143:26 0.00208573
9 *143:10 0.00265306
10 *1406:C *161:10 0.000218019
11 *1406:C *201:27 0.000219741
12 *1407:A2 *1401:B1_N 3.6495e-05
13 *1407:A2 *145:10 3.31824e-05
14 *1407:A2 *151:22 5.49995e-05
15 *143:10 *1399:B1 0.00069769
16 *143:10 *151:33 0.000518792
17 *143:10 *154:21 0.000300137
18 *143:10 *192:10 0.000123264
19 *143:10 *192:16 2.31704e-05
20 *143:10 *194:16 0.000256026
21 *143:10 *196:95 0.000327999
22 *143:10 *208:71 0.000501274
23 *143:26 *1443:B 0
24 *143:26 *1462:B 1.69115e-05
25 *143:26 *151:33 0.000137113
26 *143:26 *154:21 0.000126716
27 *143:26 *183:22 2.39885e-05
28 *143:26 *196:68 0.000746543
29 *143:26 *196:95 2.31791e-05
30 *143:26 *208:71 0.000117019
31 *143:26 *222:45 1.47728e-05
32 *143:30 *1469:A 4.0155e-05
33 *143:30 *151:22 6.59207e-05
34 *143:30 *151:33 0.000222216
35 *143:30 *156:10 0.000121891
36 *143:30 *196:47 0.000965734
37 *143:30 *196:68 0.000421536
38 *143:52 *164:23 0.000175892
39 *143:52 *202:35 0.00403448
40 *143:52 *202:48 0.000447925
41 *1401:A1 *1407:A2 3.12694e-05
42 *1407:B1 *1407:A2 0.000161197
43 *1515:A1 *143:26 4.37712e-06
44 *52:24 *143:26 0.00112873
45 *74:28 *143:30 0.000183599
46 *79:18 *143:30 0.000994976
47 *136:92 *143:30 0.00103055
48 *142:16 *143:52 0.00318392
49 *142:18 *143:52 0.000125997
50 *142:30 *143:52 0.000220935
*RES
1 *1399:Y *143:10 49.4607 
2 *143:10 *143:26 24.3664 
3 *143:26 *143:30 32.4018 
4 *143:30 *1407:A2 16.1482 
5 *143:30 *1401:A2 9.3 
6 *143:10 *143:50 4.5 
7 *143:50 *143:52 48.1786 
8 *143:52 *1406:C 21.1571 
*END

*D_NET *144 0.0220895
*CONN
*I *1406:A I *D sky130_fd_sc_hd__or3_4
*I *1401:B1_N I *D sky130_fd_sc_hd__o21bai_4
*I *1407:A1 I *D sky130_fd_sc_hd__o21ai_2
*I *1400:X O *D sky130_fd_sc_hd__and4_2
*CAP
1 *1406:A 0
2 *1401:B1_N 0.000222892
3 *1407:A1 5.21192e-05
4 *1400:X 0.000496939
5 *144:58 0.00130164
6 *144:30 0.000931747
7 *144:28 0.00243216
8 *144:10 0.003574
9 *1401:B1_N *1540:A1 6.92966e-06
10 *1401:B1_N *145:10 0.000178503
11 *1401:B1_N *151:22 8.43823e-05
12 *1401:B1_N *218:18 1.35553e-05
13 *1407:A1 *204:46 0.000124177
14 *144:10 *167:40 0.00015078
15 *144:10 *201:33 0.000967203
16 *144:28 *1446:A1 2.84109e-05
17 *144:28 *1446:B2 4.17242e-05
18 *144:28 *190:24 0.000153837
19 *144:28 *199:16 5.50052e-05
20 *144:28 *199:25 4.34677e-05
21 *144:28 *225:10 0.000561838
22 *144:28 *225:70 0.000211103
23 *144:28 *227:23 9.59419e-05
24 *144:28 *227:66 0.000763486
25 *144:28 *228:35 3.78423e-05
26 *144:30 *1540:A1 6.08303e-05
27 *144:30 *1590:A 2.59355e-05
28 *144:30 *227:102 2.13481e-06
29 *144:58 *159:12 0
30 *144:58 *167:34 4.32258e-05
31 *144:58 *167:40 0.00134496
32 *144:58 *201:27 0.0010444
33 *144:58 *201:33 0.00142164
34 *1407:A2 *1401:B1_N 3.6495e-05
35 *1407:B1 *1401:B1_N 5.49995e-05
36 *1461:B *144:28 0.00130817
37 *1461:C *144:30 5.7298e-05
38 *1497:B *144:58 0.000340503
39 *1498:B *144:58 2.48938e-05
40 *1524:A2 *144:58 7.5638e-05
41 *1540:B1 *1401:B1_N 0.000148868
42 *35:12 *144:28 9.83388e-05
43 *35:12 *144:30 0.000168903
44 *46:10 *1401:B1_N 4.18042e-05
45 *49:71 *1407:A1 6.06282e-05
46 *91:22 *144:28 0.000224505
47 *104:22 *144:58 0.000448032
48 *120:10 *144:10 0.000262465
49 *120:33 *144:58 0.000600803
50 *131:76 *144:58 0.0015143
51 *131:119 *144:58 0.000150038
*RES
1 *1400:X *144:10 25.8357 
2 *144:10 *144:28 43.0536 
3 *144:28 *144:30 7.92857 
4 *144:30 *1407:A1 19.9429 
5 *144:30 *1401:B1_N 23.0679 
6 *144:10 *144:58 49.3036 
7 *144:58 *1406:A 13.8 
*END

*D_NET *145 0.013071
*CONN
*I *1402:B I *D sky130_fd_sc_hd__xnor2_4
*I *1425:B I *D sky130_fd_sc_hd__and2b_2
*I *1401:Y O *D sky130_fd_sc_hd__o21bai_4
*CAP
1 *1402:B 0
2 *1425:B 0
3 *1401:Y 0.000385835
4 *145:28 0.00118367
5 *145:22 0.00188061
6 *145:10 0.00108278
7 *145:10 *206:66 0.000896095
8 *145:22 *174:24 2.52804e-05
9 *145:22 *183:168 0.000240963
10 *145:22 *199:29 0.000137288
11 *145:22 *206:66 0.000212042
12 *145:22 *227:66 3.29297e-05
13 *145:22 *227:81 0.000840155
14 *145:28 *1429:B 0.00211771
15 *145:28 *1432:A 0.000157992
16 *145:28 *1519:A3 0.000261801
17 *145:28 *174:24 0.000331263
18 *145:28 *175:26 0.000157103
19 *145:28 *179:10 0.000261801
20 *145:28 *199:29 0.000113017
21 *1401:B1_N *145:10 0.000178503
22 *1407:A2 *145:10 3.31824e-05
23 *1407:B1 *145:10 7.02212e-05
24 *35:55 *145:10 0.00026023
25 *68:8 *145:28 7.60613e-05
26 *77:20 *145:22 0.000716652
27 *98:10 *145:28 0.0010421
28 *106:24 *145:28 0.000375714
*RES
1 *1401:Y *145:10 19.7286 
2 *145:10 *145:22 22.3661 
3 *145:22 *145:28 43.1875 
4 *145:28 *1425:B 9.3 
5 *145:10 *1402:B 9.3 
*END

*D_NET *146 0.00896837
*CONN
*I *1426:C I *D sky130_fd_sc_hd__and3_2
*I *1403:B I *D sky130_fd_sc_hd__xnor2_4
*I *1402:Y O *D sky130_fd_sc_hd__xnor2_4
*CAP
1 *1426:C 0.000557099
2 *1403:B 0.000555492
3 *1402:Y 0.000453808
4 *146:12 0.0015664
5 *1403:B *192:28 0.000400076
6 *1403:B *205:53 7.06059e-05
7 *1426:C *1426:B 0.000203099
8 *1426:C *170:18 0.000758954
9 *146:12 *170:18 0.000557592
10 *146:12 *178:12 0.00071934
11 *1403:A *1403:B 0.000149641
12 *1410:A2 *1426:C 9.60939e-05
13 *1426:A *1426:C 3.48447e-05
14 *1502:A2 *1426:C 0.000148196
15 *1540:A3 *1403:B 0.000146512
16 *46:10 *1403:B 0.00130538
17 *49:55 *1403:B 7.05143e-06
18 *49:63 *1403:B 6.56593e-05
19 *88:24 *146:12 0.000168046
20 *118:14 *146:12 0.000721055
21 *131:48 *1426:C 0.000136958
22 *136:108 *1426:C 0.000146474
*RES
1 *1402:Y *146:12 32.9964 
2 *146:12 *1403:B 35.425 
3 *146:12 *1426:C 31.6393 
*END

*D_NET *147 0.0163677
*CONN
*I *1415:A I *D sky130_fd_sc_hd__xor2_2
*I *1414:A I *D sky130_fd_sc_hd__nand2_2
*I *1403:Y O *D sky130_fd_sc_hd__xnor2_4
*CAP
1 *1415:A 0.000779844
2 *1414:A 7.14051e-05
3 *1403:Y 9.87717e-05
4 *147:25 0.00527503
5 *147:23 0.00459266
6 *147:10 0.000267649
7 *1414:A *181:14 0.000136951
8 *1415:A *1413:B1 1.08847e-05
9 *1415:A *1415:B 0.00109467
10 *1415:A *148:22 0
11 *1415:A *148:24 0
12 *1415:A *155:36 4.63699e-05
13 *1415:A *160:16 0.000536795
14 *147:10 *1435:A 0.000146474
15 *147:10 *1502:C1 0.000146474
16 *147:23 *1435:A 0.000330674
17 *147:23 *1502:C1 0.000339924
18 *147:25 *1436:A 0.000642212
19 *147:25 *1449:C 0.000134349
20 *147:25 *156:39 0.000117453
21 *147:25 *194:49 0.000180496
22 *147:25 *228:78 0.000548336
23 *1458:A1 *147:25 0.000152264
24 *31:28 *1415:A 0.000479015
25 *39:20 *147:25 1.90303e-05
26 *91:14 *147:25 0.000219987
*RES
1 *1403:Y *147:10 16.2821 
2 *147:10 *1414:A 15.1571 
3 *147:10 *147:23 8.875 
4 *147:23 *147:25 51.875 
5 *147:25 *1415:A 40.3714 
*END

*D_NET *148 0.0362707
*CONN
*I *1518:A2 I *D sky130_fd_sc_hd__o211ai_2
*I *1421:A I *D sky130_fd_sc_hd__nand2_2
*I *1419:B I *D sky130_fd_sc_hd__and4_2
*I *1416:A I *D sky130_fd_sc_hd__nand2_1
*I *1520:A1 I *D sky130_fd_sc_hd__o21ai_2
*I *1519:A2 I *D sky130_fd_sc_hd__a31o_1
*I *1413:A1 I *D sky130_fd_sc_hd__a31o_2
*I *1524:B2 I *D sky130_fd_sc_hd__a22o_1
*I *1460:A I *D sky130_fd_sc_hd__or2b_1
*I *1521:A2 I *D sky130_fd_sc_hd__a31o_1
*I *1404:X O *D sky130_fd_sc_hd__clkbuf_4
*CAP
1 *1518:A2 0.000177201
2 *1421:A 0.00127561
3 *1419:B 0.000136733
4 *1416:A 0.000183479
5 *1520:A1 2.26156e-05
6 *1519:A2 9.81261e-05
7 *1413:A1 0.000237129
8 *1524:B2 2.114e-05
9 *1460:A 0
10 *1521:A2 0.000440489
11 *1404:X 0.000233345
12 *148:79 0.000335255
13 *148:46 0.000959227
14 *148:40 0.00183713
15 *148:30 0.00209995
16 *148:24 0.00110194
17 *148:22 0.000406022
18 *148:20 0.00151161
19 *148:14 0.00207583
20 *148:12 0.00288505
21 *148:8 0.00136714
22 *1413:A1 *1415:B 3.69047e-06
23 *1413:A1 *204:8 0.000100524
24 *1416:A *160:16 7.20217e-06
25 *1421:A *1432:A 8.84874e-05
26 *1421:A *1520:A2 0.000265447
27 *1421:A *172:24 0.000100476
28 *1421:A *197:35 0.000365847
29 *1421:A *202:35 0.000129913
30 *1518:A2 *225:103 9.18818e-05
31 *1521:A2 *211:24 0.00018372
32 *148:8 *149:48 0.000161849
33 *148:12 *1471:A2 4.15432e-05
34 *148:12 *175:26 0.000405045
35 *148:12 *199:42 1.78353e-05
36 *148:12 *225:103 9.91086e-05
37 *148:14 *202:35 0.000563969
38 *148:20 *1420:B 0.000388648
39 *148:20 *160:16 0
40 *148:20 *162:14 4.27437e-05
41 *148:20 *202:31 1.21289e-05
42 *148:20 *202:35 0.000794011
43 *148:24 *204:16 0.0001007
44 *148:24 *204:27 0.000306214
45 *148:30 *1413:B1 0
46 *148:30 *1513:A2 2.11419e-05
47 *148:30 *181:87 0.000558545
48 *148:30 *204:16 0.00112247
49 *148:30 *229:20 0.000136501
50 *148:40 *161:10 8.16225e-05
51 *148:40 *164:23 0.000166941
52 *148:40 *209:50 0.000218404
53 *148:46 *1429:A 0.000220909
54 *148:46 *1432:A 0.000224928
55 *148:46 *199:29 0.0011899
56 *1386:B *148:12 0.000542221
57 *1394:B *1518:A2 9.90367e-05
58 *1415:A *148:22 0
59 *1415:A *148:24 0
60 *1416:B *1416:A 7.64988e-05
61 *1416:B *1520:A1 9.66977e-05
62 *1419:A *1419:B 6.60154e-05
63 *1459:B *1524:B2 2.59355e-05
64 *1459:B *148:30 0.000148303
65 *1460:B_N *148:46 2.79421e-05
66 *1471:A1 *148:12 0.00156735
67 *1518:B1 *1518:A2 1.78353e-05
68 *1518:B1 *148:12 4.98481e-05
69 *1519:A1 *1413:A1 1.47146e-05
70 *1519:A1 *1519:A2 9.81603e-05
71 *1519:B1 *1519:A2 1.98839e-05
72 *1521:B1 *1521:A2 0.000185643
73 *1524:A2 *1524:B2 1.98839e-05
74 *1524:A2 *148:30 0.000153193
75 *31:14 *1419:B 0.000168939
76 *31:28 *1413:A1 5.22045e-05
77 *31:28 *148:30 0
78 *33:12 *148:30 0.000235196
79 *33:16 *148:40 0.000876632
80 *39:20 *148:30 0
81 *53:74 *1521:A2 4.30012e-05
82 *55:31 *1419:B 3.14008e-05
83 *60:43 *1518:A2 9.30337e-05
84 *63:10 *1521:A2 0.0010424
85 *64:10 *1521:A2 4.33423e-05
86 *67:24 *1518:A2 2.8266e-06
87 *67:24 *148:12 0.000146843
88 *98:10 *148:12 0.000129427
89 *106:24 *1521:A2 0.000100843
90 *106:24 *148:12 0.000107625
91 *107:12 *1521:A2 0.00104412
92 *107:12 *148:46 0.000749053
93 *117:16 *148:40 0.000507034
94 *121:10 *148:20 5.10822e-05
95 *121:10 *148:22 4.02462e-05
96 *121:10 *148:24 9.81804e-05
97 *129:10 *148:12 0.000189215
98 *129:36 *148:12 0.00100225
99 *131:95 *148:30 0.000549576
100 *131:119 *1416:A 3.87887e-05
101 *131:119 *1520:A1 9.66977e-05
102 *133:162 *1518:A2 0
103 *137:112 *1421:A 4.22135e-06
*RES
1 *1404:X *148:8 16.8 
2 *148:8 *148:12 35.8929 
3 *148:12 *148:14 10.8036 
4 *148:14 *148:20 26.0893 
5 *148:20 *148:22 1.03571 
6 *148:22 *148:24 7.71429 
7 *148:24 *148:30 27.2321 
8 *148:30 *148:40 39.6964 
9 *148:40 *148:46 21.0536 
10 *148:46 *1521:A2 35.1036 
11 *148:46 *1460:A 9.3 
12 *148:30 *1524:B2 9.83571 
13 *148:24 *148:79 4.5 
14 *148:79 *1413:A1 14.2464 
15 *148:79 *1519:A2 11.0857 
16 *148:22 *1520:A1 14.7464 
17 *148:20 *1416:A 16.8357 
18 *148:14 *1419:B 21.4607 
19 *148:12 *1421:A 35.8179 
20 *148:8 *1518:A2 17.9071 
*END

*D_NET *149 0.0531486
*CONN
*I *1493:A I *D sky130_fd_sc_hd__nand3_2
*I *1428:B I *D sky130_fd_sc_hd__nand2_2
*I *1548:A1 I *D sky130_fd_sc_hd__a311o_1
*I *1421:B I *D sky130_fd_sc_hd__nand2_2
*I *1545:A1 I *D sky130_fd_sc_hd__a21oi_1
*I *1426:B I *D sky130_fd_sc_hd__and3_2
*I *1546:A1 I *D sky130_fd_sc_hd__o22a_1
*I *1494:A1 I *D sky130_fd_sc_hd__a21o_1
*I *1466:A I *D sky130_fd_sc_hd__xnor2_2
*I *1413:A2 I *D sky130_fd_sc_hd__a31o_2
*I *1405:X O *D sky130_fd_sc_hd__buf_4
*CAP
1 *1493:A 0.000652425
2 *1428:B 0
3 *1548:A1 0.00115275
4 *1421:B 0.000389802
5 *1545:A1 0
6 *1426:B 0.00160193
7 *1546:A1 0.000475502
8 *1494:A1 0
9 *1466:A 0.000495086
10 *1413:A2 0.000836697
11 *1405:X 0
12 *149:120 0.00154255
13 *149:87 0.0028026
14 *149:73 0.00228008
15 *149:67 0.00262896
16 *149:63 0.00149764
17 *149:61 0.00142019
18 *149:48 0.00204297
19 *149:16 0.00255937
20 *149:4 0.0029264
21 *1413:A2 *1415:B 3.10499e-05
22 *1413:A2 *157:12 0.000120272
23 *1413:A2 *204:8 3.06878e-06
24 *1421:B *150:14 0.000543996
25 *1421:B *196:95 0
26 *1426:B *1410:A3 0.000892763
27 *1426:B *1417:B 0.000814123
28 *1426:B *1435:A 7.83587e-05
29 *1426:B *204:46 3.25078e-05
30 *1493:A *155:20 0.000271596
31 *1493:A *212:22 0.00114448
32 *1546:A1 *158:43 3.84285e-06
33 *1546:A1 *176:18 0.000288697
34 *1546:A1 *226:48 8.6229e-06
35 *1548:A1 *1548:A3 1.30594e-05
36 *1548:A1 *150:14 0.000735779
37 *1548:A1 *187:24 8.76349e-05
38 *1548:A1 *196:95 0
39 *149:16 *1523:B1 0.00133357
40 *149:16 *160:16 0.000106154
41 *149:48 *1404:A 9.90431e-05
42 *149:48 *1506:B 0.000150456
43 *149:48 *225:103 0.000709834
44 *149:63 *1448:A 0
45 *149:63 *155:20 0
46 *149:63 *172:16 8.07951e-05
47 *149:63 *192:10 0
48 *149:67 *1448:A 0
49 *149:67 *1472:A1 0.000158013
50 *149:67 *1472:A2 0.000149543
51 *149:67 *1512:B1 0.000147886
52 *149:67 *172:16 2.26424e-05
53 *149:67 *181:38 5.75803e-05
54 *149:67 *186:59 0.000278477
55 *149:67 *194:18 0
56 *149:67 *224:23 0.000233882
57 *149:73 *1442:B 9.22052e-06
58 *149:73 *1472:A1 6.84956e-05
59 *149:73 *166:16 0.000857273
60 *149:73 *204:38 5.58331e-05
61 *149:73 *205:42 0.00151039
62 *149:87 *1545:B1 3.19935e-05
63 *149:87 *176:18 0.000607471
64 *149:87 *186:18 8.99608e-05
65 *149:87 *188:77 2.2628e-05
66 *149:87 *212:22 0.000135688
67 *1410:A2 *1426:B 1.98839e-05
68 *1426:A *1426:B 5.74499e-06
69 *1426:C *1426:B 0.000203099
70 *1427:B *149:73 2.44568e-05
71 *1493:B *149:61 0.00176169
72 *1493:C *1493:A 6.96878e-05
73 *1494:B1 *1493:A 0.000189352
74 *1494:B1 *149:48 3.4621e-05
75 *1494:B1 *149:61 0.00180904
76 *1518:A1 *1493:A 8.6281e-05
77 *1523:B2 *1413:A2 0.000392324
78 *1545:A2 *149:73 2.59355e-05
79 *1551:B *149:73 9.43077e-06
80 *1551:B *149:87 4.95491e-06
81 *39:28 *1413:A2 0.00206114
82 *39:28 *1466:A 0.0011097
83 *44:22 *1421:B 6.66506e-05
84 *44:22 *149:73 7.19508e-05
85 *46:10 *149:73 5.21016e-05
86 *49:12 *149:73 0.000114269
87 *52:24 *1548:A1 0
88 *60:26 *1421:B 0
89 *60:26 *1426:B 9.25014e-06
90 *60:43 *149:61 0
91 *60:43 *149:63 0
92 *63:8 *1426:B 9.71197e-05
93 *66:12 *1493:A 0.000168489
94 *74:28 *149:87 0.000261701
95 *78:22 *149:61 0.00029213
96 *78:22 *149:67 0.000135968
97 *85:22 *149:87 3.08644e-05
98 *114:10 *1546:A1 0.00131967
99 *114:10 *149:87 0.000711313
100 *116:20 *1548:A1 6.49154e-05
101 *118:8 *149:73 5.36438e-05
102 *131:60 *149:73 0.000297406
103 *131:125 *1413:A2 0.00121357
104 *133:162 *149:48 0.00017133
105 *133:162 *149:61 9.22103e-06
106 *135:57 *149:63 0
107 *135:57 *149:67 0.000133358
108 *136:69 *149:67 8.15095e-05
109 *136:73 *149:67 0.000662522
110 *136:73 *149:73 4.21517e-05
111 *137:28 *1546:A1 0.00129268
112 *137:28 *149:87 4.80729e-05
113 *137:43 *1426:B 0.0002897
114 *141:10 *1421:B 6.47405e-05
115 *142:94 *1548:A1 0.000131517
116 *148:8 *149:48 0.000161849
*RES
1 *1405:X *149:4 9.3 
2 *149:4 *149:16 36 
3 *149:16 *1413:A2 45.9607 
4 *149:16 *1466:A 20.5143 
5 *149:4 *149:48 32.3393 
6 *149:48 *1494:A1 9.3 
7 *149:48 *149:61 23.3839 
8 *149:61 *149:63 6.65179 
9 *149:63 *149:67 26.3125 
10 *149:67 *149:73 38.2232 
11 *149:73 *149:87 23.1948 
12 *149:87 *1546:A1 31.2286 
13 *149:87 *1426:B 49.1393 
14 *149:73 *1545:A1 9.3 
15 *149:67 *149:120 3.41 
16 *149:120 *1421:B 19.0057 
17 *149:120 *1548:A1 20.8791 
18 *149:63 *1428:B 13.8 
19 *149:61 *1493:A 28.299 
*END

*D_NET *150 0.0256573
*CONN
*I *1411:A1 I *D sky130_fd_sc_hd__a21o_1
*I *1412:A I *D sky130_fd_sc_hd__and3_1
*I *1406:X O *D sky130_fd_sc_hd__or3_4
*CAP
1 *1411:A1 0.00121894
2 *1412:A 0.000723239
3 *1406:X 0.00390057
4 *150:16 0.00194218
5 *150:14 0.00390057
6 *1411:A1 *1411:A2 0.00107674
7 *1411:A1 *1411:B1 6.05161e-06
8 *1411:A1 *154:21 1.9516e-05
9 *1411:A1 *187:24 0.000165637
10 *1412:A *189:12 0.00180344
11 *150:14 *1432:A 0.000220882
12 *150:14 *1520:A2 0.00256372
13 *150:14 *175:26 1.08601e-05
14 *1421:B *150:14 0.000543996
15 *1494:B1 *1411:A1 9.90367e-05
16 *1548:A1 *150:14 0.000735779
17 *36:16 *1411:A1 4.16114e-05
18 *45:23 *1411:A1 0.00147927
19 *45:23 *1412:A 1.94945e-05
20 *45:29 *1412:A 0.00224508
21 *47:45 *1412:A 0.000121504
22 *49:28 *150:14 0.00135793
23 *49:55 *150:14 0.000295857
24 *52:24 *150:14 4.14244e-05
25 *66:12 *1411:A1 0.00108054
26 *76:16 *150:14 0
27 *98:10 *150:14 4.34472e-05
28 *134:12 *1412:A 0
29 *134:23 *1411:A1 0
30 *134:23 *1412:A 0
*RES
1 *1406:X *150:14 47.7723 
2 *150:14 *150:16 3.41 
3 *150:16 *1412:A 42.9161 
4 *150:16 *1411:A1 49.0232 
*END

*D_NET *151 0.0176933
*CONN
*I *1411:A2 I *D sky130_fd_sc_hd__a21o_1
*I *1412:B I *D sky130_fd_sc_hd__and3_1
*I *1407:Y O *D sky130_fd_sc_hd__o21ai_2
*CAP
1 *1411:A2 0.000463871
2 *1412:B 4.91556e-05
3 *1407:Y 0.000884095
4 *151:33 0.00178042
5 *151:22 0.0022498
6 *1411:A2 *1411:B1 4.18518e-06
7 *1411:A2 *154:21 0.00105189
8 *151:22 *1469:A 0.000408876
9 *151:22 *154:10 0.00026537
10 *151:22 *228:51 0.000479136
11 *151:33 *154:10 0.000127883
12 *151:33 *154:21 0.00374586
13 *151:33 *156:10 0.000121891
14 *151:33 *196:68 0.00195485
15 *151:33 *196:95 0.000352892
16 *1401:B1_N *151:22 8.43823e-05
17 *1407:A2 *151:22 5.49995e-05
18 *1411:A1 *1411:A2 0.00107674
19 *1502:A2 *1412:B 1.58163e-05
20 *1540:B1 *151:22 9.00294e-05
21 *45:21 *1411:A2 4.58194e-05
22 *46:10 *151:22 0.000208869
23 *59:8 *151:22 0.000227683
24 *59:31 *151:22 7.34455e-06
25 *79:18 *151:22 0.000997405
26 *143:10 *151:33 0.000518792
27 *143:26 *151:33 0.000137113
28 *143:30 *151:22 6.59207e-05
29 *143:30 *151:33 0.000222216
*RES
1 *1407:Y *151:22 46.8 
2 *151:22 *1412:B 14.3357 
3 *151:22 *151:33 50.2143 
4 *151:33 *1411:A2 38.0054 
*END

*D_NET *152 0.0149252
*CONN
*I *1410:A3 I *D sky130_fd_sc_hd__a31o_1
*I *1417:B I *D sky130_fd_sc_hd__and2b_1
*I *1408:X O *D sky130_fd_sc_hd__a22o_1
*CAP
1 *1410:A3 0.000541701
2 *1417:B 0.0018963
3 *1408:X 0.000745034
4 *152:16 0.00318304
5 *1410:A3 *154:10 2.42516e-05
6 *1417:B *1417:A_N 0.000108447
7 *1417:B *161:8 2.85957e-05
8 *152:16 *1408:A1 2.26424e-05
9 *152:16 *158:14 0.00015704
10 *152:16 *220:22 0.000709964
11 *152:16 *220:34 0.000619104
12 *1426:A *1410:A3 2.59355e-05
13 *1426:B *1410:A3 0.000892763
14 *1426:B *1417:B 0.000814123
15 *1455:B1 *152:16 5.33005e-05
16 *1467:A *1417:B 0.000730828
17 *1467:B *1417:B 0.000177821
18 *1490:B1 *1410:A3 0.000240905
19 *1529:B *1417:B 0.000342302
20 *1538:A1 *152:16 4.46186e-06
21 *35:55 *152:16 0.000506957
22 *35:63 *152:16 0.000190322
23 *41:8 *1417:B 9.71197e-05
24 *63:8 *1410:A3 0.000501758
25 *63:8 *1417:B 0.00114652
26 *99:8 *1417:B 0.000139187
27 *118:14 *152:16 1.09026e-05
28 *135:32 *152:16 0.000896339
29 *137:43 *1417:B 8.43535e-06
30 *141:24 *152:16 0.000109065
*RES
1 *1408:X *152:16 42.0857 
2 *152:16 *1417:B 49.6929 
3 *152:16 *1410:A3 23.3893 
*END

*D_NET *153 0.020883
*CONN
*I *1410:B1 I *D sky130_fd_sc_hd__a31o_1
*I *1417:A_N I *D sky130_fd_sc_hd__and2b_1
*I *1409:X O *D sky130_fd_sc_hd__and4_1
*CAP
1 *1410:B1 0
2 *1417:A_N 0.00112814
3 *1409:X 0.000115812
4 *153:39 0.000999101
5 *153:12 0.0031754
6 *153:8 0.00116398
7 *1417:A_N *1422:A_N 0.000177821
8 *1417:A_N *1556:A1 0.000216755
9 *1417:A_N *161:8 0.000175892
10 *1417:A_N *192:32 0.00102434
11 *1417:A_N *200:34 0.000224314
12 *1417:A_N *201:33 0.00014576
13 *1417:A_N *206:35 0.000180348
14 *1417:A_N *225:70 0.000308006
15 *153:8 *1397:A 5.33005e-05
16 *153:8 *230:41 3.97677e-05
17 *153:12 *169:10 1.90936e-05
18 *153:12 *169:22 0.000146437
19 *153:12 *195:20 0.000205421
20 *153:12 *211:56 0.000896332
21 *153:39 *192:32 0.00127032
22 *153:39 *200:34 0.00325737
23 *1417:B *1417:A_N 0.000108447
24 *1458:A1 *153:12 0.000701632
25 *1502:A2 *153:39 1.08359e-05
26 *30:10 *153:12 0.000471733
27 *33:28 *153:12 0.000409978
28 *33:49 *153:12 0.00210011
29 *55:14 *153:12 7.14469e-05
30 *66:34 *153:12 0.000183617
31 *67:24 *153:12 0.000124653
32 *68:8 *153:12 1.3409e-05
33 *79:18 *153:39 4.66279e-05
34 *91:22 *1417:A_N 0.000144038
35 *95:30 *1417:A_N 0.000175892
36 *123:12 *1417:A_N 0.000735623
37 *136:100 *153:39 0.000661261
*RES
1 *1409:X *153:8 15.1571 
2 *153:8 *153:12 40.75 
3 *153:12 *1417:A_N 46.5143 
4 *153:12 *153:39 42.2857 
5 *153:39 *1410:B1 9.3 
*END

*D_NET *154 0.013745
*CONN
*I *1411:B1 I *D sky130_fd_sc_hd__a21o_1
*I *1412:C I *D sky130_fd_sc_hd__and3_1
*I *1410:X O *D sky130_fd_sc_hd__a31o_1
*CAP
1 *1411:B1 6.78159e-05
2 *1412:C 1.59879e-05
3 *1410:X 0.000245013
4 *154:21 0.00168315
5 *154:10 0.00187633
6 *1412:C *183:22 1.95435e-05
7 *154:21 *155:20 0
8 *1410:A3 *154:10 2.42516e-05
9 *1411:A1 *1411:B1 6.05161e-06
10 *1411:A1 *154:21 1.9516e-05
11 *1411:A2 *1411:B1 4.18518e-06
12 *1411:A2 *154:21 0.00105189
13 *1490:B1 *154:10 5.52238e-05
14 *1494:B1 *1411:B1 3.30237e-05
15 *45:23 *154:21 0.00149086
16 *45:29 *154:10 0.000216209
17 *45:29 *154:21 0.00222426
18 *59:31 *154:10 0.00014576
19 *143:10 *154:21 0.000300137
20 *143:26 *154:21 0.000126716
21 *151:22 *154:10 0.00026537
22 *151:33 *154:10 0.000127883
23 *151:33 *154:21 0.00374586
*RES
1 *1410:X *154:10 20.1393 
2 *154:10 *1412:C 13.9964 
3 *154:10 *154:21 62.3571 
4 *154:21 *1411:B1 15.175 
*END

*D_NET *155 0.0294656
*CONN
*I *1422:B I *D sky130_fd_sc_hd__and2b_2
*I *1413:A3 I *D sky130_fd_sc_hd__a31o_2
*I *1411:X O *D sky130_fd_sc_hd__a21o_1
*CAP
1 *1422:B 0.00224706
2 *1413:A3 0
3 *1411:X 0.00524785
4 *155:36 0.00275769
5 *155:20 0.0102526
6 *1422:B *169:49 0.0010238
7 *1422:B *173:10 0.000114258
8 *1422:B *184:16 9.15842e-06
9 *1422:B *200:55 0.000439064
10 *1422:B *211:24 6.97592e-05
11 *155:20 *1399:B1 0.000241731
12 *155:20 *1432:A 0.00082399
13 *155:20 *1448:B 0.000176294
14 *155:20 *1471:A2 0.000276316
15 *155:20 *167:24 0.00017405
16 *155:20 *168:16 4.98422e-05
17 *155:20 *169:22 0.000519491
18 *155:20 *169:49 0.000144794
19 *155:20 *172:24 0.000110514
20 *155:20 *185:10 0.000258184
21 *155:20 *198:32 8.40352e-05
22 *155:20 *212:22 0.000485158
23 *155:36 *1591:A 0.000108456
24 *155:36 *157:12 2.92927e-05
25 *155:36 *169:49 4.18305e-05
26 *155:36 *195:12 4.58764e-05
27 *155:36 *223:10 0.00020392
28 *155:36 *230:18 2.79421e-05
29 *1399:A1 *155:20 0.000145343
30 *1415:A *155:36 4.63699e-05
31 *1458:A1 *155:36 4.38243e-05
32 *1471:A1 *155:20 0.00011134
33 *1471:B1 *155:20 0.000267341
34 *1493:A *155:20 0.000271596
35 *32:20 *1422:B 0.000135574
36 *33:28 *1422:B 0.000153078
37 *40:29 *155:36 0.000118011
38 *45:21 *155:20 0.000169732
39 *66:34 *155:20 2.72231e-05
40 *66:36 *1422:B 0.000367743
41 *67:24 *1422:B 0.000224053
42 *67:24 *155:20 0
43 *69:14 *1422:B 0.000391804
44 *78:22 *155:20 0.000114697
45 *88:24 *155:20 4.98422e-05
46 *106:24 *155:20 0.000391504
47 *109:18 *155:36 8.11524e-05
48 *137:112 *155:20 0.000207025
49 *137:131 *155:20 0.000185417
50 *149:63 *155:20 0
51 *154:21 *155:20 0
*RES
1 *1411:X *155:20 38.0591 
2 *155:20 *155:36 47.8597 
3 *155:36 *1413:A3 9.3 
4 *155:20 *1422:B 31.3702 
*END

*D_NET *156 0.0210942
*CONN
*I *1413:B1 I *D sky130_fd_sc_hd__a31o_2
*I *1422:A_N I *D sky130_fd_sc_hd__and2b_2
*I *1412:X O *D sky130_fd_sc_hd__and3_1
*CAP
1 *1413:B1 0.000151607
2 *1422:A_N 0.000680777
3 *1412:X 4.94458e-05
4 *156:39 0.00297084
5 *156:14 0.00450703
6 *156:10 0.00105647
7 *1422:A_N *1481:A2 1.177e-05
8 *1422:A_N *169:49 0.000212251
9 *1422:A_N *179:40 2.22043e-05
10 *1422:A_N *184:16 0.000115444
11 *1422:A_N *192:32 0.000175892
12 *1422:A_N *195:12 0.000209978
13 *1422:A_N *195:48 0.000136958
14 *1422:A_N *209:50 0.000124012
15 *156:14 *1456:A 0.000883468
16 *156:14 *193:56 0.000216755
17 *156:14 *205:21 0.00242846
18 *156:14 *205:34 0.000124296
19 *156:14 *205:53 0.000332954
20 *156:39 *1436:A 4.92678e-05
21 *156:39 *1449:C 0.000108277
22 *156:39 *179:40 6.57032e-05
23 *156:39 *181:8 0.000402571
24 *156:39 *181:70 0.000207754
25 *156:39 *195:12 0.00118404
26 *156:39 *209:16 8.4098e-05
27 *156:39 *209:50 0.000242599
28 *1415:A *1413:B1 1.08847e-05
29 *1417:A_N *1422:A_N 0.000177821
30 *1458:A1 *156:39 8.32171e-05
31 *30:8 *156:14 0.000968712
32 *31:28 *1413:B1 0.000303665
33 *33:28 *1422:A_N 0.000226673
34 *39:20 *156:39 1.33343e-05
35 *69:14 *1422:A_N 1.25776e-05
36 *69:14 *156:39 0.000131166
37 *91:14 *156:39 0.000143228
38 *95:30 *1422:A_N 0.000997482
39 *112:10 *1422:A_N 0.000909286
40 *143:30 *156:10 0.000121891
41 *147:25 *156:39 0.000117453
42 *148:30 *1413:B1 0
43 *151:33 *156:10 0.000121891
*RES
1 *1412:X *156:10 19.9429 
2 *156:10 *156:14 35.4286 
3 *156:14 *1422:A_N 44.6214 
4 *156:14 *156:39 47.3393 
5 *156:39 *1413:B1 22.0679 
*END

*D_NET *157 0.0134782
*CONN
*I *1415:B I *D sky130_fd_sc_hd__xor2_2
*I *1414:B I *D sky130_fd_sc_hd__nand2_2
*I *1413:X O *D sky130_fd_sc_hd__a31o_2
*CAP
1 *1415:B 0.000597806
2 *1414:B 0.000184506
3 *1413:X 0
4 *157:16 0.0029039
5 *157:12 0.00311234
6 *157:4 0.000990749
7 *1414:B *158:14 4.87953e-05
8 *1414:B *181:14 0.000453547
9 *1415:B *204:8 0.000185118
10 *157:12 *204:8 5.49544e-05
11 *157:12 *206:87 0.00033296
12 *157:16 *181:14 0.000552055
13 *1413:A1 *1415:B 3.69047e-06
14 *1413:A2 *1415:B 3.10499e-05
15 *1413:A2 *157:12 0.000120272
16 *1415:A *1415:B 0.00109467
17 *1560:B *157:16 0.00239631
18 *39:28 *157:12 2.90164e-05
19 *56:62 *157:12 0.000227729
20 *70:14 *157:16 0.000129429
21 *155:36 *157:12 2.92927e-05
*RES
1 *1413:X *157:4 9.3 
2 *157:4 *157:12 19.375 
3 *157:12 *157:16 47.8839 
4 *157:16 *1414:B 13.7375 
5 *157:4 *1415:B 24.8571 
*END

*D_NET *158 0.0261586
*CONN
*I *1434:A I *D sky130_fd_sc_hd__and3_1
*I *1433:A1 I *D sky130_fd_sc_hd__a21oi_2
*I *1496:A1 I *D sky130_fd_sc_hd__a21o_1
*I *1414:Y O *D sky130_fd_sc_hd__nand2_2
*CAP
1 *1434:A 0.000101951
2 *1433:A1 0.00259545
3 *1496:A1 0.000846508
4 *1414:Y 0.000928795
5 *158:55 0.00280441
6 *158:49 0.000999868
7 *158:43 0.00176374
8 *158:14 0.00285009
9 *1433:A1 *1433:A2 4.86074e-05
10 *1433:A1 *168:44 0.00391475
11 *1434:A *220:34 0.000216077
12 *1496:A1 *1469:B 0.00114382
13 *158:14 *1469:B 0.000338675
14 *158:14 *181:14 1.39726e-05
15 *158:43 *1446:B2 5.39629e-06
16 *158:43 *1559:A1 6.37237e-05
17 *158:43 *176:18 0.000130991
18 *158:43 *176:28 0
19 *158:43 *197:37 0.000584579
20 *158:43 *220:22 8.83765e-05
21 *158:43 *226:48 5.19522e-06
22 *158:49 *176:28 0.000216035
23 *158:49 *212:22 2.3704e-05
24 *158:49 *220:34 0.000353079
25 *158:55 *1434:C 0
26 *158:55 *186:32 0.000231069
27 *1408:B2 *158:43 2.22043e-05
28 *1408:B2 *158:49 8.02536e-05
29 *1414:B *158:14 4.87953e-05
30 *1461:C *158:43 7.6644e-05
31 *1487:A *158:14 0.000169671
32 *1509:A2 *158:49 0.000304572
33 *1546:A1 *158:43 3.84285e-06
34 *1559:A3 *158:43 0.000218685
35 *35:63 *158:14 1.63307e-05
36 *44:22 *158:14 0.000585747
37 *88:24 *158:43 0.000153702
38 *104:30 *158:49 0.000373349
39 *118:14 *158:14 4.11642e-05
40 *126:12 *158:43 9.60939e-05
41 *130:67 *158:43 5.64416e-05
42 *130:87 *158:43 2.14658e-05
43 *135:32 *158:14 0.000935292
44 *137:28 *158:43 0.000750365
45 *141:24 *158:14 0.00145373
46 *142:123 *158:43 0.00032434
47 *152:16 *158:14 0.00015704
*RES
1 *1414:Y *158:14 44.7464 
2 *158:14 *1496:A1 20.5143 
3 *158:14 *158:43 37.1161 
4 *158:43 *158:49 21.8482 
5 *158:49 *158:55 12.7679 
6 *158:55 *1433:A1 48.3536 
7 *158:49 *1434:A 11.4786 
*END

*D_NET *159 0.0110905
*CONN
*I *1424:C I *D sky130_fd_sc_hd__nand3_4
*I *1556:B1 I *D sky130_fd_sc_hd__a21o_1
*I *1415:X O *D sky130_fd_sc_hd__xor2_2
*CAP
1 *1424:C 0.000774051
2 *1556:B1 0
3 *1415:X 0.000312573
4 *159:12 0.00114707
5 *159:8 0.0022337
6 *1424:C *1424:B 0.000293187
7 *1424:C *162:14 0.000971724
8 *1424:C *203:31 0.000151984
9 *159:12 *1420:B 2.04825e-05
10 *159:12 *162:14 0.000338344
11 *159:12 *163:12 1.81805e-05
12 *159:12 *163:14 0.0013539
13 *159:12 *163:16 0.00127875
14 *159:12 *202:31 0.000121573
15 *1498:B *159:12 0
16 *1516:A2 *1424:C 4.62446e-05
17 *1554:A_N *1424:C 0
18 *1554:A_N *159:12 0
19 *33:12 *159:12 7.74068e-05
20 *82:24 *1424:C 1.04473e-05
21 *85:22 *159:12 0.000564411
22 *111:24 *1424:C 0.000142026
23 *111:24 *159:12 0.000513401
24 *120:33 *159:12 0.000340639
25 *131:76 *159:12 0.000332053
26 *131:119 *159:12 4.8352e-05
27 *144:58 *159:12 0
*RES
1 *1415:X *159:8 18.0321 
2 *159:8 *159:12 43.1786 
3 *159:12 *1556:B1 9.3 
4 *159:8 *1424:C 33.6571 
*END

*D_NET *160 0.00458881
*CONN
*I *1418:A I *D sky130_fd_sc_hd__xnor2_2
*I *1416:Y O *D sky130_fd_sc_hd__nand2_1
*CAP
1 *1418:A 0
2 *1416:Y 0.00160639
3 *160:16 0.00160639
4 *160:16 *1392:A 0
5 *160:16 *1523:B1 0.000199782
6 *1415:A *160:16 0.000536795
7 *1416:A *160:16 7.20217e-06
8 *1516:A1 *160:16 0.000443268
9 *87:14 *160:16 7.02261e-05
10 *121:10 *160:16 0
11 *131:119 *160:16 1.26059e-05
12 *148:20 *160:16 0
13 *149:16 *160:16 0.000106154
*RES
1 *1416:Y *160:16 49.7286 
2 *160:16 *1418:A 9.3 
*END

*D_NET *161 0.0104249
*CONN
*I *1418:B I *D sky130_fd_sc_hd__xnor2_2
*I *1417:X O *D sky130_fd_sc_hd__and2b_1
*CAP
1 *1418:B 0
2 *1417:X 0.000213242
3 *161:10 0.00163318
4 *161:8 0.00184642
5 *161:10 *1424:B 0
6 *161:10 *164:23 0.000195493
7 *161:10 *201:23 0.000483713
8 *161:10 *201:27 0.000561072
9 *161:10 *227:45 0.000444134
10 *1406:C *161:10 0.000218019
11 *1417:A_N *161:8 0.000175892
12 *1417:B *161:8 2.85957e-05
13 *1497:A *161:10 0.000195126
14 *1498:A *161:10 0.00106848
15 *1498:B *161:10 1.37292e-05
16 *70:14 *161:10 0.000950847
17 *89:12 *161:10 0.000331826
18 *91:22 *161:10 0.00161491
19 *104:22 *161:10 0.00036858
20 *148:40 *161:10 8.16225e-05
*RES
1 *1417:X *161:8 16.3893 
2 *161:8 *161:10 52.9464 
3 *161:10 *1418:B 13.8 
*END

*D_NET *162 0.0186766
*CONN
*I *1534:A1 I *D sky130_fd_sc_hd__o21ai_1
*I *1420:A I *D sky130_fd_sc_hd__and2_2
*I *1418:Y O *D sky130_fd_sc_hd__xnor2_2
*CAP
1 *1534:A1 5.71124e-05
2 *1420:A 0.000103024
3 *1418:Y 0.000528136
4 *162:29 0.00144604
5 *162:27 0.00187215
6 *162:14 0.00111439
7 *1420:A *1420:B 0.00039281
8 *1420:A *164:6 0.000204132
9 *1534:A1 *1481:B1 0.000226507
10 *1534:A1 *1534:A2 1.74352e-05
11 *162:14 *1420:B 0.000125547
12 *162:14 *1424:B 0.00125678
13 *162:14 *164:6 6.55343e-05
14 *162:14 *202:31 9.58126e-05
15 *162:27 *163:12 2.07158e-05
16 *162:27 *163:14 6.09045e-05
17 *162:27 *207:23 0.000434614
18 *162:27 *229:47 0.000219475
19 *162:29 *163:14 0.000182868
20 *162:29 *163:16 0.0038624
21 *162:29 *177:24 0.000178735
22 *1424:C *162:14 0.000971724
23 *1516:A1 *162:14 0.000139337
24 *1520:B1 *162:27 3.69863e-05
25 *1534:B1 *1534:A1 9.41642e-05
26 *1554:A_N *162:27 0.000181169
27 *87:14 *162:14 0.000139337
28 *91:14 *162:27 0.000903393
29 *103:8 *1534:A1 2.28499e-05
30 *109:18 *162:27 0.000204814
31 *109:18 *162:29 1.43349e-05
32 *109:20 *162:29 0.00203808
33 *111:24 *162:14 0.000233048
34 *111:24 *162:29 0.000851165
35 *148:20 *162:14 4.27437e-05
36 *159:12 *162:14 0.000338344
*RES
1 *1418:Y *162:14 38.6571 
2 *162:14 *1420:A 13.1214 
3 *162:14 *162:27 21.0536 
4 *162:27 *162:29 52.9464 
5 *162:29 *1534:A1 15.9786 
*END

*D_NET *163 0.0272902
*CONN
*I *1420:B I *D sky130_fd_sc_hd__and2_2
*I *1525:A_N I *D sky130_fd_sc_hd__and3b_1
*I *1534:A2 I *D sky130_fd_sc_hd__o21ai_1
*I *1419:X O *D sky130_fd_sc_hd__and4_2
*CAP
1 *1420:B 0.000189999
2 *1525:A_N 0
3 *1534:A2 0.000165676
4 *1419:X 0.0013997
5 *163:33 0.00218681
6 *163:16 0.00138825
7 *163:14 0.00386669
8 *163:12 0.002047
9 *1420:B *164:6 3.18747e-05
10 *163:12 *201:71 0.000626792
11 *163:12 *202:31 0.000154124
12 *163:16 *1499:A 0.000781766
13 *163:16 *206:35 0.000438046
14 *163:33 *181:70 0.001547
15 *1420:A *1420:B 0.00039281
16 *1485:B *163:33 0.000170314
17 *1520:B1 *163:14 0.000526962
18 *1534:A1 *1534:A2 1.74352e-05
19 *1554:A_N *163:12 3.97543e-05
20 *56:71 *163:33 0.000393333
21 *85:22 *163:33 9.41642e-05
22 *91:14 *163:14 0.000231035
23 *95:14 *163:33 0.00201246
24 *103:8 *1534:A2 0.000179469
25 *111:24 *163:14 0.000280169
26 *111:24 *163:16 0.000728399
27 *120:10 *163:16 5.2156e-05
28 *120:33 *163:16 3.56119e-05
29 *148:20 *1420:B 0.000388648
30 *159:12 *1420:B 2.04825e-05
31 *159:12 *163:12 1.81805e-05
32 *159:12 *163:14 0.0013539
33 *159:12 *163:16 0.00127875
34 *162:14 *1420:B 0.000125547
35 *162:27 *163:12 2.07158e-05
36 *162:27 *163:14 6.09045e-05
37 *162:29 *163:14 0.000182868
38 *162:29 *163:16 0.0038624
*RES
1 *1419:X *163:12 31.7554 
2 *163:12 *163:14 17.5804 
3 *163:14 *163:16 49.6071 
4 *163:16 *1534:A2 15.9786 
5 *163:14 *163:33 46.25 
6 *163:33 *1525:A_N 9.3 
7 *163:12 *1420:B 19.9518 
*END

*D_NET *164 0.0224262
*CONN
*I *1539:A1 I *D sky130_fd_sc_hd__o21bai_1
*I *1544:A I *D sky130_fd_sc_hd__xor2_1
*I *1556:A1 I *D sky130_fd_sc_hd__a21o_1
*I *1424:B I *D sky130_fd_sc_hd__nand3_4
*I *1420:X O *D sky130_fd_sc_hd__and2_2
*CAP
1 *1539:A1 3.33231e-05
2 *1544:A 0
3 *1556:A1 0.000217817
4 *1424:B 0.000876822
5 *1420:X 0.000636454
6 *164:54 0.000911336
7 *164:38 0.00134956
8 *164:23 0.0018674
9 *164:6 0.00275796
10 *1424:B *1424:A 0
11 *1556:A1 *1447:B1 0.00023792
12 *1556:A1 *192:32 7.95355e-05
13 *164:6 *202:31 0.000136958
14 *164:23 *1447:B1 0.000145119
15 *164:23 *188:96 0.000570458
16 *164:23 *202:35 0.000104046
17 *164:23 *227:45 4.26537e-05
18 *164:54 *167:40 0.000397546
19 *164:54 *169:49 0.000111922
20 *164:54 *179:40 1.90936e-05
21 *164:54 *195:48 0.000394214
22 *164:54 *222:37 0
23 *164:54 *226:27 0.000441008
24 *164:54 *228:35 0.000283956
25 *1417:A_N *1556:A1 0.000216755
26 *1420:A *164:6 0.000204132
27 *1420:B *164:6 3.18747e-05
28 *1424:C *1424:B 0.000293187
29 *1498:B *1424:B 0.000258117
30 *1507:A2 *164:38 0.000564675
31 *1524:A1 *164:23 0.00121162
32 *1539:A2 *1539:A1 9.41642e-05
33 *1539:A2 *164:38 0.00143974
34 *1558:B1 *164:54 2.12647e-05
35 *33:28 *164:54 0.000223455
36 *55:14 *1539:A1 3.97677e-05
37 *55:14 *164:38 0.000182935
38 *66:36 *164:54 0
39 *70:14 *164:23 0.000431475
40 *79:12 *164:54 0.000135028
41 *89:12 *1424:B 0
42 *89:12 *164:23 0.000798057
43 *95:14 *164:54 8.07951e-05
44 *95:30 *164:54 0.000121573
45 *103:12 *1556:A1 0.000239634
46 *103:12 *164:23 2.31791e-05
47 *104:22 *164:23 0.000436725
48 *112:10 *164:54 0.00152013
49 *123:12 *1556:A1 0.00038214
50 *143:52 *164:23 0.000175892
51 *148:40 *164:23 0.000166941
52 *161:10 *1424:B 0
53 *161:10 *164:23 0.000195493
54 *162:14 *1424:B 0.00125678
55 *162:14 *164:6 6.55343e-05
*RES
1 *1420:X *164:6 17.2286 
2 *164:6 *1424:B 41.8 
3 *164:6 *164:23 40.625 
4 *164:23 *1556:A1 20.7821 
5 *164:23 *164:38 18.5893 
6 *164:38 *164:54 46 
7 *164:54 *1544:A 9.3 
8 *164:38 *1539:A1 10.2464 
*END

*D_NET *165 0.00613979
*CONN
*I *1423:B I *D sky130_fd_sc_hd__xnor2_4
*I *1421:Y O *D sky130_fd_sc_hd__nand2_2
*CAP
1 *1423:B 0
2 *1421:Y 0.00116423
3 *165:16 0.00116423
4 *165:16 *1435:B 0.000363562
5 *165:16 *166:16 2.23592e-05
6 *165:16 *167:24 0.000332549
7 *165:16 *169:22 2.68445e-05
8 *165:16 *171:16 0.00017754
9 *165:16 *173:37 0.000858859
10 *165:16 *228:78 0.00159729
11 *130:51 *165:16 0.000432333
*RES
1 *1421:Y *165:16 47.9964 
2 *165:16 *1423:B 9.3 
*END

*D_NET *166 0.0145555
*CONN
*I *1423:A I *D sky130_fd_sc_hd__xnor2_4
*I *1422:X O *D sky130_fd_sc_hd__and2b_2
*CAP
1 *1423:A 0
2 *1422:X 0.0017201
3 *166:16 0.00160753
4 *166:8 0.00332763
5 *166:8 *183:168 0.00206281
6 *166:8 *228:51 1.85433e-05
7 *166:16 *1445:B1 9.71197e-05
8 *166:16 *204:38 4.07184e-05
9 *166:16 *205:42 0.000120807
10 *166:16 *228:78 0.00122491
11 *1540:B1 *166:16 0.00111072
12 *46:10 *166:16 0.000345919
13 *78:22 *166:16 0.000314444
14 *131:60 *166:16 0.00168458
15 *149:73 *166:16 0.000857273
16 *165:16 *166:16 2.23592e-05
*RES
1 *1422:X *166:8 36.1036 
2 *166:8 *166:16 49.5 
3 *166:16 *1423:A 9.3 
*END

*D_NET *167 0.0357326
*CONN
*I *1424:A I *D sky130_fd_sc_hd__nand3_4
*I *1556:A2 I *D sky130_fd_sc_hd__a21o_1
*I *1544:B I *D sky130_fd_sc_hd__xor2_1
*I *1423:Y O *D sky130_fd_sc_hd__xnor2_4
*CAP
1 *1424:A 0.00250416
2 *1556:A2 0
3 *1544:B 0
4 *1423:Y 0.0039197
5 *167:40 0.0012479
6 *167:34 0.00296131
7 *167:24 0.00813726
8 *1424:A *188:96 0.000275772
9 *1424:A *229:47 0.000162023
10 *1424:A *230:10 0.000109425
11 *1424:A *230:18 0.000234866
12 *167:24 *168:16 0.000712926
13 *167:24 *169:22 0.000545026
14 *167:24 *169:49 0.000561273
15 *167:24 *183:22 0.00016273
16 *167:24 *196:68 5.38293e-05
17 *167:24 *198:32 0.00111297
18 *167:24 *222:45 0.000870925
19 *167:34 *188:96 0.000431034
20 *167:34 *230:20 0.000155447
21 *167:40 *1452:B 0.000180066
22 *167:40 *226:14 0.00140888
23 *167:40 *226:27 0.000222603
24 *1424:B *1424:A 0
25 *1515:A1 *167:24 0
26 *1516:A2 *1424:A 0.000103935
27 *1516:A2 *167:34 1.03236e-05
28 *1524:A1 *167:34 0.000250511
29 *1558:B1 *167:40 0.000820606
30 *40:14 *1424:A 0.00013869
31 *41:10 *1424:A 0.000260518
32 *52:24 *167:34 0.000307558
33 *53:28 *1424:A 0.00129321
34 *53:28 *167:34 0.000951414
35 *76:16 *167:24 0.000131465
36 *84:26 *167:24 9.09604e-05
37 *89:12 *1424:A 0.000258379
38 *104:22 *1424:A 0.000116881
39 *104:22 *167:34 0.000220321
40 *111:24 *1424:A 0
41 *111:24 *167:40 0.000300986
42 *120:10 *167:40 0.000739611
43 *120:33 *167:34 3.49187e-05
44 *120:33 *167:40 0.000768035
45 *128:8 *167:34 0.000168202
46 *133:18 *1424:A 0.000111164
47 *133:20 *1424:A 0.000216639
48 *136:92 *167:24 2.5017e-05
49 *144:10 *167:40 0.00015078
50 *144:58 *167:34 4.32258e-05
51 *144:58 *167:40 0.00134496
52 *155:20 *167:24 0.00017405
53 *164:54 *167:40 0.000397546
54 *165:16 *167:24 0.000332549
*RES
1 *1423:Y *167:24 37.2336 
2 *167:24 *167:34 12.55 
3 *167:34 *167:40 46.0536 
4 *167:40 *1544:B 9.3 
5 *167:34 *1556:A2 13.8 
6 *167:24 *1424:A 29.9281 
*END

*D_NET *168 0.0317241
*CONN
*I *1559:A1 I *D sky130_fd_sc_hd__a31o_1
*I *1434:B I *D sky130_fd_sc_hd__and3_1
*I *1433:A2 I *D sky130_fd_sc_hd__a21oi_2
*I *1424:Y O *D sky130_fd_sc_hd__nand3_4
*CAP
1 *1559:A1 4.2491e-05
2 *1434:B 3.92662e-05
3 *1433:A2 0.000100393
4 *1424:Y 0.00138368
5 *168:44 0.00104804
6 *168:36 0.00252131
7 *168:18 0.00303237
8 *168:16 0.00276598
9 *168:8 0.00269418
10 *1433:A2 *177:24 1.32293e-05
11 *168:8 *203:37 0.000144094
12 *168:16 *1471:A2 0.00126735
13 *168:16 *169:22 0.000340198
14 *168:16 *172:24 0.00265301
15 *168:16 *199:29 0.000272009
16 *168:16 *199:31 0.000480303
17 *168:16 *199:42 0.000241205
18 *168:18 *1545:B1 2.89861e-05
19 *168:18 *186:18 0
20 *168:18 *186:26 0.000740766
21 *168:36 *1393:A 7.6644e-05
22 *168:36 *1434:C 5.67174e-05
23 *168:36 *1446:B2 0.000345444
24 *168:36 *1538:A3 0
25 *168:36 *183:168 9.17062e-05
26 *168:36 *186:26 3.63298e-05
27 *168:36 *186:28 0
28 *168:36 *186:32 0
29 *168:36 *220:34 0
30 *168:36 *228:51 0.000267877
31 *168:44 *1433:B1 0.00188671
32 *168:44 *1434:C 4.79864e-05
33 *168:44 *1536:B1 0.000399756
34 *168:44 *177:24 1.12713e-05
35 *168:44 *213:26 5.49544e-05
36 *1433:A1 *1433:A2 4.86074e-05
37 *1433:A1 *168:44 0.00391475
38 *1461:C *168:36 0.000303562
39 *1476:A *168:36 0
40 *1559:B1 *168:36 0.000217852
41 *48:12 *168:36 1.31235e-05
42 *75:18 *168:18 0.00161935
43 *104:30 *168:44 0.000143101
44 *107:8 *1434:B 5.49995e-05
45 *119:10 *168:18 4.08132e-05
46 *130:67 *1559:A1 1.58163e-05
47 *137:16 *168:36 0.000723253
48 *137:131 *168:16 1.17968e-05
49 *138:14 *168:8 5.56679e-05
50 *138:35 *168:8 0.000650671
51 *155:20 *168:16 4.98422e-05
52 *158:43 *1559:A1 6.37237e-05
53 *167:24 *168:16 0.000712926
*RES
1 *1424:Y *168:8 37.7464 
2 *168:8 *168:16 43.2076 
3 *168:16 *168:18 32.1518 
4 *168:18 *168:36 41.0893 
5 *168:36 *168:44 47.8571 
6 *168:44 *1433:A2 11.4786 
7 *168:36 *1434:B 14.3357 
8 *168:18 *1559:A1 14.7643 
*END

*D_NET *169 0.0319519
*CONN
*I *1430:A I *D sky130_fd_sc_hd__nor3_2
*I *1431:A1 I *D sky130_fd_sc_hd__o21ai_2
*I *1425:X O *D sky130_fd_sc_hd__and2b_2
*CAP
1 *1430:A 0
2 *1431:A1 0.0012955
3 *1425:X 5.16907e-05
4 *169:49 0.00612566
5 *169:22 0.00350281
6 *169:10 0.00838466
7 *1431:A1 *1431:A2 2.13218e-05
8 *1431:A1 *1431:B1 0.00152403
9 *1431:A1 *175:20 2.23592e-05
10 *1431:A1 *215:16 1.65169e-05
11 *169:10 *211:56 1.1594e-05
12 *169:22 *1397:A 6.73217e-05
13 *169:22 *1431:B1 2.90164e-05
14 *169:22 *1435:B 0.000208099
15 *169:22 *209:106 0.000494276
16 *169:22 *211:56 0.000148926
17 *169:49 *1514:A1 0.000337893
18 *169:49 *170:24 0.000402343
19 *169:49 *180:23 0.000191758
20 *169:49 *190:24 0.000222531
21 *169:49 *195:12 0.000141019
22 *169:49 *200:55 0
23 *169:49 *213:10 0.000153695
24 *169:49 *222:39 0.000318255
25 *1422:A_N *169:49 0.000212251
26 *1422:B *169:49 0.0010238
27 *1425:A_N *169:10 5.33005e-05
28 *1480:B *169:49 1.09611e-05
29 *1515:A1 *169:22 0
30 *1517:A *169:22 0.00017309
31 *1531:A *169:49 0.00020615
32 *44:22 *169:22 4.98055e-06
33 *66:34 *169:22 9.11825e-07
34 *67:24 *169:49 0
35 *82:24 *169:49 2.41653e-05
36 *88:24 *169:22 0.000111243
37 *95:30 *169:49 0.000164145
38 *103:12 *169:49 0.000885196
39 *104:22 *169:49 0.000111243
40 *112:10 *169:49 0.000742431
41 *130:51 *169:22 0.00118973
42 *141:10 *169:22 0.000295938
43 *141:24 *169:22 0.000614219
44 *153:12 *169:10 1.90936e-05
45 *153:12 *169:22 0.000146437
46 *155:20 *169:22 0.000519491
47 *155:20 *169:49 0.000144794
48 *155:36 *169:49 4.18305e-05
49 *164:54 *169:49 0.000111922
50 *165:16 *169:22 2.68445e-05
51 *167:24 *169:22 0.000545026
52 *167:24 *169:49 0.000561273
53 *168:16 *169:22 0.000340198
*RES
1 *1425:X *169:10 14.6125 
2 *169:10 *169:22 38.0111 
3 *169:22 *1431:A1 26.5857 
4 *169:10 *169:49 48.9005 
5 *169:49 *1430:A 9.3 
*END

*D_NET *170 0.0266226
*CONN
*I *1431:A2 I *D sky130_fd_sc_hd__o21ai_2
*I *1430:B I *D sky130_fd_sc_hd__nor3_2
*I *1426:X O *D sky130_fd_sc_hd__and3_2
*CAP
1 *1431:A2 6.92146e-05
2 *1430:B 0
3 *1426:X 7.98117e-05
4 *170:31 0.00187136
5 *170:24 0.00130777
6 *170:18 0.00395427
7 *170:16 0.00271932
8 *170:12 0.00195478
9 *1431:A2 *175:20 5.49544e-05
10 *1431:A2 *215:16 0.000185124
11 *170:12 *183:131 4.85049e-06
12 *170:16 *187:28 0.000138178
13 *170:16 *228:66 0
14 *170:18 *1429:B 2.79421e-05
15 *170:18 *188:81 0.00016093
16 *170:18 *200:24 0.0020319
17 *170:18 *211:8 0.00220229
18 *170:24 *201:33 0.00169893
19 *170:24 *213:10 0.000310117
20 *170:31 *1445:B1 0
21 *170:31 *1475:A 0
22 *170:31 *175:20 0.000338337
23 *170:31 *183:131 0.000117378
24 *170:31 *187:24 4.26565e-05
25 *170:31 *187:28 0.00269111
26 *170:31 *202:48 0
27 *170:31 *228:66 0
28 *170:31 *228:78 7.8327e-05
29 *1426:C *170:18 0.000758954
30 *1431:A1 *1431:A2 2.13218e-05
31 *1468:B *170:31 0.000227736
32 *1548:A2 *170:31 0
33 *1548:B1 *170:31 0.000121418
34 *1548:C1 *170:31 0.000124846
35 *35:55 *170:18 2.59355e-05
36 *49:63 *170:18 0.000433698
37 *52:24 *170:31 0
38 *91:22 *170:24 0.00104889
39 *103:12 *170:24 0
40 *104:22 *170:24 0.000394668
41 *120:10 *170:24 0
42 *131:48 *170:18 0.000125443
43 *142:94 *170:31 0.000340234
44 *146:12 *170:18 0.000557592
45 *169:49 *170:24 0.000402343
*RES
1 *1426:X *170:12 15.1482 
2 *170:12 *170:16 6.29464 
3 *170:16 *170:18 55.1607 
4 *170:18 *170:24 45.8571 
5 *170:24 *1430:B 9.3 
6 *170:12 *170:31 46.7232 
7 *170:31 *1431:A2 15.9964 
*END

*D_NET *171 0.00974137
*CONN
*I *1429:A I *D sky130_fd_sc_hd__xnor2_4
*I *1427:X O *D sky130_fd_sc_hd__and3_2
*CAP
1 *1429:A 0.000774415
2 *1427:X 0.00156515
3 *171:16 0.00233957
4 *1429:A *1432:A 0.000157447
5 *1429:A *199:29 0.000210546
6 *171:16 *172:24 0.000649691
7 *171:16 *197:35 0.000582179
8 *171:16 *199:29 0
9 *1406:B *171:16 0.000893105
10 *1425:A_N *1429:A 0.000160588
11 *1425:A_N *171:16 0.000606259
12 *1529:B *1429:A 2.26327e-05
13 *63:10 *1429:A 0.000174805
14 *107:12 *1429:A 0.000519797
15 *137:55 *171:16 0.000229818
16 *137:112 *171:16 3.28096e-05
17 *140:24 *1429:A 0.000424102
18 *148:46 *1429:A 0.000220909
19 *165:16 *171:16 0.00017754
*RES
1 *1427:X *171:16 44.6482 
2 *171:16 *1429:A 35.0232 
*END

*D_NET *172 0.0211983
*CONN
*I *1492:A2 I *D sky130_fd_sc_hd__a21oi_1
*I *1429:B I *D sky130_fd_sc_hd__xnor2_4
*I *1428:Y O *D sky130_fd_sc_hd__nand2_2
*CAP
1 *1492:A2 0.00117061
2 *1429:B 0.000779422
3 *1428:Y 4.70928e-05
4 *172:24 0.00191606
5 *172:16 0.00277309
6 *172:6 0.00285416
7 *1429:B *175:26 0.00211606
8 *1429:B *188:81 9.60939e-05
9 *1492:A2 *1399:A2 3.97863e-05
10 *1492:A2 *1450:A2 0.000151357
11 *1492:A2 *1450:A3 0.00121517
12 *1492:A2 *1450:B1 1.13883e-05
13 *172:6 *1450:A2 2.59355e-05
14 *172:16 *1448:A 4.35141e-05
15 *172:16 *203:37 0.00017146
16 *172:24 *1432:A 0.000238674
17 *172:24 *199:29 1.12357e-05
18 *1421:A *172:24 0.000100476
19 *1428:A *172:16 9.66977e-05
20 *40:29 *172:24 7.69179e-05
21 *106:24 *1429:B 0.000420283
22 *137:112 *172:24 0.000441796
23 *137:131 *172:24 0.000738684
24 *145:28 *1429:B 0.00211771
25 *149:63 *172:16 8.07951e-05
26 *149:67 *172:16 2.26424e-05
27 *155:20 *172:24 0.000110514
28 *168:16 *172:24 0.00265301
29 *170:18 *1429:B 2.79421e-05
30 *171:16 *172:24 0.000649691
*RES
1 *1428:Y *172:6 9.83571 
2 *172:6 *172:16 33.3393 
3 *172:16 *172:24 46.5179 
4 *172:24 *1429:B 42.925 
5 *172:6 *1492:A2 35.1571 
*END

*D_NET *173 0.0283666
*CONN
*I *1431:B1 I *D sky130_fd_sc_hd__o21ai_2
*I *1430:C I *D sky130_fd_sc_hd__nor3_2
*I *1429:Y O *D sky130_fd_sc_hd__xnor2_4
*CAP
1 *1431:B1 0.000824937
2 *1430:C 0.000300521
3 *1429:Y 0
4 *173:37 0.00388372
5 *173:10 0.00200738
6 *173:6 0.00476564
7 *1430:C *174:10 0.000405452
8 *1430:C *219:30 0.0013581
9 *1431:B1 *1443:C_N 0.00017599
10 *1431:B1 *175:20 5.33005e-05
11 *1431:B1 *181:38 0.000177821
12 *1431:B1 *194:16 4.43256e-05
13 *1431:B1 *209:106 0.000519185
14 *1431:B1 *215:16 0.000410606
15 *173:10 *1481:A2 0
16 *173:10 *174:24 0
17 *173:10 *211:24 0
18 *173:37 *1435:B 1.81805e-05
19 *173:37 *1443:C_N 1.94945e-05
20 *173:37 *194:49 0.000373967
21 *1422:B *173:10 0.000114258
22 *1431:A1 *1431:B1 0.00152403
23 *1515:A1 *173:37 0.000119085
24 *32:20 *173:10 0.000880514
25 *32:20 *173:37 2.11419e-05
26 *52:24 *173:37 0.000351193
27 *60:26 *1431:B1 0.000413936
28 *66:36 *173:10 0.00162007
29 *66:36 *173:37 1.24469e-05
30 *67:24 *173:10 0
31 *67:24 *173:37 0.00160243
32 *68:8 *173:10 0
33 *88:24 *173:37 0.000215032
34 *106:24 *173:37 0.00160891
35 *120:6 *1430:C 0.00218569
36 *130:51 *1431:B1 0.000291986
37 *130:51 *173:37 2.67866e-05
38 *130:131 *173:37 4.55219e-05
39 *135:51 *173:37 0.00110711
40 *135:57 *1431:B1 0
41 *165:16 *173:37 0.000858859
42 *169:22 *1431:B1 2.90164e-05
*RES
1 *1429:Y *173:6 13.8 
2 *173:6 *173:10 40.75 
3 *173:10 *1430:C 29.9607 
4 *173:6 *173:37 39.4101 
5 *173:37 *1431:B1 40.2196 
*END

*D_NET *174 0.0224592
*CONN
*I *1432:A I *D sky130_fd_sc_hd__or2b_2
*I *1496:B1 I *D sky130_fd_sc_hd__a21o_1
*I *1430:Y O *D sky130_fd_sc_hd__nor3_2
*CAP
1 *1432:A 0.00291964
2 *1496:B1 0
3 *1430:Y 0.000368729
4 *174:24 0.00458128
5 *174:10 0.00203037
6 *1432:A *175:24 5.03616e-05
7 *1432:A *175:26 0.000420283
8 *1432:A *196:114 0.000344835
9 *1432:A *198:32 0.000800738
10 *1432:A *199:29 0.000224928
11 *174:10 *213:18 0.00239354
12 *174:10 *219:30 0.00170325
13 *174:24 *1514:A1 0
14 *174:24 *183:168 0.000242677
15 *174:24 *199:16 0.000573542
16 *174:24 *199:29 0
17 *174:24 *227:66 3.04581e-05
18 *1421:A *1432:A 8.84874e-05
19 *1429:A *1432:A 0.000157447
20 *1430:C *174:10 0.000405452
21 *68:8 *1432:A 7.1816e-05
22 *68:8 *174:24 0.000733853
23 *104:22 *174:24 0
24 *106:24 *1432:A 0.00160113
25 *107:12 *1432:A 0.000138531
26 *137:112 *1432:A 0.000554813
27 *145:22 *174:24 2.52804e-05
28 *145:28 *1432:A 0.000157992
29 *145:28 *174:24 0.000331263
30 *148:46 *1432:A 0.000224928
31 *150:14 *1432:A 0.000220882
32 *155:20 *1432:A 0.00082399
33 *172:24 *1432:A 0.000238674
34 *173:10 *174:24 0
*RES
1 *1430:Y *174:10 37.3536 
2 *174:10 *174:24 40.0503 
3 *174:24 *1496:B1 13.8 
4 *174:24 *1432:A 49.2454 
*END

*D_NET *175 0.0163356
*CONN
*I *1432:B_N I *D sky130_fd_sc_hd__or2b_2
*I *1496:A2 I *D sky130_fd_sc_hd__a21o_1
*I *1431:Y O *D sky130_fd_sc_hd__o21ai_2
*CAP
1 *1432:B_N 0
2 *1496:A2 0
3 *1431:Y 0.00111943
4 *175:26 0.00141368
5 *175:24 0.00167302
6 *175:20 0.00137877
7 *175:20 *196:114 0.000308595
8 *175:20 *215:16 1.98839e-05
9 *175:20 *224:8 0.000298728
10 *175:24 *1550:A2 5.03772e-05
11 *175:24 *196:114 0.000145945
12 *175:24 *224:8 0.000721475
13 *175:26 *199:29 0.00284116
14 *175:26 *199:31 0.000241682
15 *175:26 *199:42 9.42015e-05
16 *1429:B *175:26 0.00211606
17 *1431:A1 *175:20 2.23592e-05
18 *1431:A2 *175:20 5.49544e-05
19 *1431:B1 *175:20 5.33005e-05
20 *1432:A *175:24 5.03616e-05
21 *1432:A *175:26 0.000420283
22 *1470:B *175:20 0.00188723
23 *1548:C1 *175:20 0.000340059
24 *35:71 *175:20 0.000172695
25 *98:10 *175:26 0
26 *145:28 *175:26 0.000157103
27 *148:12 *175:26 0.000405045
28 *150:14 *175:26 1.08601e-05
29 *170:31 *175:20 0.000338337
*RES
1 *1431:Y *175:20 47.7286 
2 *175:20 *175:24 11.6071 
3 *175:24 *175:26 45.9643 
4 *175:26 *1496:A2 13.8 
5 *175:20 *1432:B_N 9.3 
*END

*D_NET *176 0.0237901
*CONN
*I *1434:C I *D sky130_fd_sc_hd__and3_1
*I *1433:B1 I *D sky130_fd_sc_hd__a21oi_2
*I *1432:X O *D sky130_fd_sc_hd__or2b_2
*CAP
1 *1434:C 0.000278112
2 *1433:B1 0.00138907
3 *1432:X 0.000319931
4 *176:28 0.00256171
5 *176:18 0.00313145
6 *176:8 0.00255686
7 *1433:B1 *1538:A3 0.000310612
8 *1433:B1 *177:24 5.66971e-05
9 *1434:C *1538:A3 0.000482395
10 *1434:C *220:34 2.0954e-05
11 *176:8 *224:8 0.000430313
12 *176:18 *1503:A1 0.00143196
13 *176:18 *183:28 0.000396761
14 *176:18 *183:53 0.000471368
15 *176:18 *188:77 0.000762368
16 *176:18 *197:37 0.000320196
17 *176:18 *198:32 0.000352471
18 *176:18 *212:22 0.00170372
19 *176:28 *186:32 0
20 *176:28 *196:18 0.000151726
21 *176:28 *211:24 7.05989e-05
22 *176:28 *212:22 4.32258e-05
23 *176:28 *226:48 3.69489e-05
24 *1546:A1 *176:18 0.000288697
25 *81:20 *1433:B1 0.000164886
26 *88:24 *176:28 0.000135852
27 *97:12 *176:18 0.00100091
28 *104:30 *1433:B1 9.84729e-05
29 *104:30 *1434:C 0.000472556
30 *104:30 *176:28 0.000274376
31 *106:24 *176:18 0
32 *114:10 *176:18 0.000473779
33 *119:10 *176:28 0.000245358
34 *137:28 *176:18 0.000258082
35 *142:123 *176:18 0.00015175
36 *149:87 *176:18 0.000607471
37 *158:43 *176:18 0.000130991
38 *158:43 *176:28 0
39 *158:49 *176:28 0.000216035
40 *158:55 *1434:C 0
41 *168:36 *1434:C 5.67174e-05
42 *168:44 *1433:B1 0.00188671
43 *168:44 *1434:C 4.79864e-05
*RES
1 *1432:X *176:8 18.0321 
2 *176:8 *176:18 49.493 
3 *176:18 *176:28 29.7347 
4 *176:28 *1433:B1 44.9071 
5 *176:28 *1434:C 26.3536 
*END

*D_NET *177 0.0208467
*CONN
*I *1435:A I *D sky130_fd_sc_hd__nor2_1
*I *1433:Y O *D sky130_fd_sc_hd__a21oi_2
*CAP
1 *1435:A 0.000906209
2 *1433:Y 0.00520385
3 *177:24 0.00611006
4 *1435:A *1435:B 0
5 *1435:A *1482:A1 0.000189195
6 *1435:A *1502:C1 0.00051141
7 *1435:A *178:12 0.000102969
8 *1435:A *194:49 0.000109994
9 *1435:A *204:38 5.90443e-06
10 *1435:A *204:46 0.000100322
11 *177:24 *204:46 0.000179647
12 *1426:B *1435:A 7.83587e-05
13 *1433:A2 *177:24 1.32293e-05
14 *1433:B1 *177:24 5.66971e-05
15 *1487:A *177:24 8.8522e-05
16 *1543:A *177:24 2.18103e-05
17 *48:16 *177:24 2.4912e-05
18 *49:71 *1435:A 4.15592e-05
19 *49:71 *177:24 0.000386766
20 *60:26 *1435:A 5.53052e-05
21 *74:28 *177:24 0
22 *78:22 *177:24 0.000262025
23 *88:24 *177:24 0.000628226
24 *92:14 *177:24 0
25 *99:16 *1435:A 5.11653e-05
26 *104:22 *177:24 0.0032243
27 *109:20 *177:24 0.000320847
28 *111:24 *177:24 1.22852e-05
29 *120:10 *177:24 0
30 *135:32 *1435:A 0.000495224
31 *135:51 *1435:A 0.000949954
32 *141:24 *177:24 4.8817e-05
33 *147:10 *1435:A 0.000146474
34 *147:23 *1435:A 0.000330674
35 *162:29 *177:24 0.000178735
36 *168:44 *177:24 1.12713e-05
*RES
1 *1433:Y *177:24 47.9726 
2 *177:24 *1435:A 42.6125 
*END

*D_NET *178 0.0119779
*CONN
*I *1435:B I *D sky130_fd_sc_hd__nor2_1
*I *1434:X O *D sky130_fd_sc_hd__and3_1
*CAP
1 *1435:B 0.000806318
2 *1434:X 0.000333135
3 *178:12 0.00219829
4 *178:8 0.00172511
5 *1435:B *1456:A 0.000146241
6 *1435:B *179:10 9.41642e-05
7 *1435:B *194:49 0.000767709
8 *178:8 *220:34 2.52885e-05
9 *1435:A *1435:B 0
10 *1435:A *178:12 0.000102969
11 *1505:A2 *178:12 1.18064e-05
12 *1530:A *178:12 0.00036941
13 *1538:A1 *178:8 2.11336e-05
14 *1538:A1 *178:12 0.000142824
15 *1538:A2 *178:8 3.88207e-05
16 *1538:B1 *178:12 1.62216e-05
17 *35:55 *178:12 0.000195015
18 *49:71 *178:12 0
19 *88:24 *178:12 0.000176806
20 *99:16 *178:12 0.00146877
21 *100:12 *178:12 3.46786e-05
22 *106:24 *178:12 4.43299e-05
23 *107:8 *178:8 9.99853e-05
24 *118:14 *1435:B 0.000485719
25 *118:14 *178:12 0.000569535
26 *135:18 *178:12 0.00024292
27 *141:24 *1435:B 0.000551554
28 *146:12 *178:12 0.00071934
29 *165:16 *1435:B 0.000363562
30 *169:22 *1435:B 0.000208099
31 *173:37 *1435:B 1.81805e-05
*RES
1 *1434:X *178:8 18.0321 
2 *178:8 *178:12 38.6518 
3 *178:12 *1435:B 38.2018 
*END

*D_NET *179 0.0167914
*CONN
*I *1481:A2 I *D sky130_fd_sc_hd__a211o_1
*I *1435:Y O *D sky130_fd_sc_hd__nor2_1
*CAP
1 *1481:A2 0.0017904
2 *1435:Y 0.00147801
3 *179:40 0.00349197
4 *179:10 0.00317958
5 *1481:A2 *1384:A 0
6 *1481:A2 *181:131 0
7 *1481:A2 *190:24 0.000182378
8 *1481:A2 *195:48 3.03519e-06
9 *1481:A2 *196:18 2.98912e-05
10 *1481:A2 *217:6 7.617e-05
11 *1481:A2 *222:37 0
12 *179:10 *1519:A3 0.000643019
13 *179:10 *185:25 1.65914e-05
14 *179:10 *210:28 0
15 *179:40 *1449:C 0.000136958
16 *179:40 *209:28 0
17 *179:40 *222:37 0
18 *1422:A_N *1481:A2 1.177e-05
19 *1422:A_N *179:40 2.22043e-05
20 *1425:A_N *179:10 0.000382053
21 *1435:B *179:10 9.41642e-05
22 *42:8 *179:10 0.001319
23 *55:31 *179:10 0.00037801
24 *55:31 *179:40 0.00110504
25 *56:50 *179:40 4.16936e-05
26 *84:26 *179:40 0.000188218
27 *95:30 *1481:A2 0.00176316
28 *97:20 *179:40 0
29 *112:10 *179:40 6.51025e-05
30 *124:12 *1481:A2 0
31 *133:58 *1481:A2 4.6361e-05
32 *145:28 *179:10 0.000261801
33 *156:39 *179:40 6.57032e-05
34 *164:54 *179:40 1.90936e-05
35 *173:10 *1481:A2 0
*RES
1 *1435:Y *179:10 46.8357 
2 *179:10 *179:40 39.0287 
3 *179:40 *1481:A2 49.9518 
*END

*D_NET *180 0.0128236
*CONN
*I *1479:C I *D sky130_fd_sc_hd__and3_2
*I *1518:C1 I *D sky130_fd_sc_hd__o211ai_2
*I *1437:B I *D sky130_fd_sc_hd__nor2_4
*I *1436:Y O *D sky130_fd_sc_hd__nand2_2
*CAP
1 *1479:C 7.36714e-05
2 *1518:C1 0.000810253
3 *1437:B 9.54716e-05
4 *1436:Y 2.04426e-05
5 *180:23 0.00217902
6 *180:8 0.00141101
7 *1479:C *1479:A 8.26339e-05
8 *1518:C1 *1404:A 0.00144756
9 *180:23 *1479:A 0.000136733
10 *180:23 *1592:A 0.000148189
11 *180:23 *210:28 0.000102199
12 *180:23 *210:32 0.000110125
13 *180:23 *223:10 0.00110971
14 *1394:B *1518:C1 5.52302e-05
15 *1518:B1 *1518:C1 0
16 *1533:B *1518:C1 0.000440581
17 *1550:A1 *180:23 7.02461e-05
18 *32:52 *1518:C1 1.25366e-05
19 *41:44 *180:23 0.000435501
20 *55:31 *180:23 0
21 *67:24 *1518:C1 0.000155463
22 *78:22 *1518:C1 0
23 *95:14 *1437:B 0.000236243
24 *95:14 *180:23 0.000279299
25 *97:16 *180:8 5.33005e-05
26 *112:10 *1437:B 0.000236243
27 *112:10 *180:23 0.00263462
28 *116:28 *1518:C1 0.00012249
29 *134:33 *180:23 0.000147142
30 *135:36 *180:8 2.59355e-05
31 *169:49 *180:23 0.000191758
*RES
1 *1436:Y *180:8 14.3357 
2 *180:8 *1437:B 16.9607 
3 *180:8 *180:23 43.1607 
4 *180:23 *1518:C1 39.9071 
5 *180:23 *1479:C 10.2464 
*END

*D_NET *181 0.0455488
*CONN
*I *1447:A3 I *D sky130_fd_sc_hd__a311o_1
*I *1555:A3 I *D sky130_fd_sc_hd__a31o_1
*I *1526:A3 I *D sky130_fd_sc_hd__a31o_1
*I *1538:A3 I *D sky130_fd_sc_hd__a311o_1
*I *1513:A3 I *D sky130_fd_sc_hd__a31oi_2
*I *1548:A3 I *D sky130_fd_sc_hd__a311o_1
*I *1517:B I *D sky130_fd_sc_hd__or2_1
*I *1437:Y O *D sky130_fd_sc_hd__nor2_4
*CAP
1 *1447:A3 0
2 *1555:A3 0
3 *1526:A3 0
4 *1538:A3 0.000852385
5 *1513:A3 4.40206e-05
6 *1548:A3 0.000405189
7 *1517:B 0.000831703
8 *1437:Y 0.000142345
9 *181:131 0.0026348
10 *181:115 0.00325537
11 *181:107 0.00246161
12 *181:87 0.00155949
13 *181:70 0.00150346
14 *181:38 0.00125551
15 *181:18 0.00141445
16 *181:14 0.00201414
17 *181:8 0.00245964
18 *1517:B *1399:B1 5.21164e-05
19 *1517:B *1448:A 0.000669014
20 *1517:B *1448:B 0.000151061
21 *1517:B *192:10 0.000160976
22 *1517:B *192:16 0.000765552
23 *1517:B *192:20 0.000377233
24 *1517:B *224:31 0.000350929
25 *1548:A3 *1399:A2 1.41029e-05
26 *1548:A3 *1478:B 0.000102545
27 *1548:A3 *202:48 0.00109962
28 *181:18 *1443:B 0.000195844
29 *181:18 *1462:B 2.12521e-05
30 *181:18 *183:22 0.000523833
31 *181:18 *192:28 0.00149521
32 *181:18 *197:10 7.10033e-05
33 *181:38 *1472:A1 3.51442e-05
34 *181:38 *1472:A2 7.08306e-05
35 *181:38 *192:28 0.000213868
36 *181:38 *194:16 0.000135028
37 *181:38 *194:18 0.000538307
38 *181:38 *194:24 0.000249019
39 *181:38 *202:48 9.41642e-05
40 *181:38 *215:16 1.98839e-05
41 *181:38 *224:23 0.000121268
42 *181:38 *230:54 2.79421e-05
43 *181:70 *1513:A1 9.41642e-05
44 *181:87 *204:16 0.000145837
45 *181:87 *229:20 0.000129366
46 *181:107 *1557:A1 0.000378558
47 *181:107 *200:18 0.000306591
48 *181:107 *204:16 0.000849467
49 *181:107 *206:35 0
50 *181:107 *226:76 3.29297e-05
51 *181:107 *229:20 0.000192912
52 *181:115 *1557:A1 1.00887e-05
53 *181:115 *201:49 0.000932936
54 *181:115 *226:10 0.000314085
55 *181:115 *226:76 0.000383104
56 *181:115 *229:14 3.92914e-05
57 *181:131 *1384:A 0.000542568
58 *181:131 *199:16 0.00109437
59 *181:131 *220:34 5.58162e-05
60 *1414:A *181:14 0.000136951
61 *1414:B *181:14 0.000453547
62 *1431:B1 *181:38 0.000177821
63 *1433:B1 *1538:A3 0.000310612
64 *1434:C *1538:A3 0.000482395
65 *1459:C *181:87 0
66 *1476:A *1538:A3 0.000144746
67 *1481:A2 *181:131 0
68 *1481:C1 *181:131 8.68453e-05
69 *1507:A2 *181:107 0
70 *1509:A1 *181:131 7.74068e-05
71 *1509:A2 *181:131 7.58841e-05
72 *1513:B1 *181:70 0.001729
73 *1532:A *181:131 0
74 *1548:A1 *1548:A3 1.30594e-05
75 *1548:A2 *1548:A3 1.00332e-05
76 *1548:B1 *1548:A3 0.000915966
77 *1548:B1 *181:38 9.58126e-05
78 *36:16 *181:38 9.60875e-05
79 *39:20 *181:87 0
80 *56:56 *1513:A3 3.67252e-05
81 *56:56 *181:70 4.91601e-05
82 *56:71 *181:70 0.000204786
83 *63:18 *181:115 2.14757e-05
84 *69:14 *181:8 0.000400856
85 *69:14 *181:70 0.000216297
86 *85:22 *181:70 0.000304394
87 *92:14 *181:131 0.000109862
88 *104:30 *1538:A3 0.000162131
89 *107:8 *181:131 0.000180202
90 *109:20 *181:115 0
91 *116:20 *1548:A3 7.70035e-05
92 *127:14 *181:14 0.00139437
93 *132:12 *181:87 0
94 *133:44 *181:115 0.000353908
95 *148:30 *181:87 0.000558545
96 *149:67 *181:38 5.75803e-05
97 *156:39 *181:8 0.000402571
98 *156:39 *181:70 0.000207754
99 *157:16 *181:14 0.000552055
100 *158:14 *181:14 1.39726e-05
101 *163:33 *181:70 0.001547
102 *168:36 *1538:A3 0
*RES
1 *1437:Y *181:8 19.0857 
2 *181:8 *181:14 37.0536 
3 *181:14 *181:18 24.0536 
4 *181:18 *181:38 36.4286 
5 *181:38 *1517:B 38.1036 
6 *181:18 *1548:A3 31.175 
7 *181:8 *181:70 32.9464 
8 *181:70 *1513:A3 10.2464 
9 *181:70 *181:87 17.5536 
10 *181:87 *181:107 27.7143 
11 *181:107 *181:115 38.2679 
12 *181:115 *181:131 46.5357 
13 *181:131 *1538:A3 30.6393 
14 *181:115 *1526:A3 9.3 
15 *181:107 *1555:A3 9.3 
16 *181:87 *1447:A3 13.8 
*END

*D_NET *182 0.0179231
*CONN
*I *1439:A I *D sky130_fd_sc_hd__clkbuf_4
*I *1438:X O *D sky130_fd_sc_hd__or2_1
*CAP
1 *1439:A 0.00105434
2 *1438:X 0.0026779
3 *182:12 0.00231666
4 *182:8 0.00394022
5 *1439:A *1585:A 0.000340004
6 *1439:A *183:6 5.33005e-05
7 out[1] *182:12 3.82216e-05
8 out[3] *1439:A 0.000117421
9 out[4] *1439:A 2.18087e-05
10 *1489:B *182:12 0.00150292
11 *1492:A1 *182:8 0.000607131
12 *1492:B1 *182:8 3.22663e-05
13 *1515:A2 *1439:A 0.000180626
14 *1515:A2 *182:12 0.00212955
15 *1515:B1_N *1439:A 0.000415508
16 *35:84 *182:8 0.00163287
17 *43:16 *1439:A 6.05161e-06
18 *50:29 *1439:A 0.00080104
19 *50:29 *182:12 0
20 *65:12 *182:8 5.52238e-05
*RES
1 *1438:X *182:8 49.2464 
2 *182:8 *182:12 37.6518 
3 *182:12 *1439:A 41.5232 
*END

*D_NET *183 0.0417713
*CONN
*I *1440:B I *D sky130_fd_sc_hd__nor2_1
*I *1557:A2 I *D sky130_fd_sc_hd__o22a_1
*I *1514:A2 I *D sky130_fd_sc_hd__o221a_1
*I *1527:B I *D sky130_fd_sc_hd__nor2_1
*I *1537:B I *D sky130_fd_sc_hd__nor2_1
*I *1547:B I *D sky130_fd_sc_hd__nor2_1
*I *1503:A2 I *D sky130_fd_sc_hd__o211ai_2
*I *1520:A2 I *D sky130_fd_sc_hd__o21ai_2
*I *1439:X O *D sky130_fd_sc_hd__clkbuf_4
*CAP
1 *1440:B 0
2 *1557:A2 0
3 *1514:A2 0.000511694
4 *1527:B 0
5 *1537:B 0
6 *1547:B 9.3846e-05
7 *1503:A2 0
8 *1520:A2 0.00130015
9 *1439:X 0.000122211
10 *183:180 0.00117613
11 *183:170 0.00117613
12 *183:168 0.00176931
13 *183:131 0.00343563
14 *183:70 0.000577964
15 *183:53 0.000966038
16 *183:28 0.00236831
17 *183:22 0.00240378
18 *183:6 0.00309438
19 *1514:A2 *1514:A1 1.94945e-05
20 *1514:A2 *188:16 0
21 *1520:A2 *197:35 2.59355e-05
22 *183:22 *192:28 0.000234363
23 *183:22 *196:68 0.000475315
24 *183:22 *205:42 0.000431278
25 *183:22 *205:53 8.26761e-05
26 *183:28 *197:37 0.000353905
27 *183:53 *1503:A1 0.00040618
28 *183:53 *196:114 0.000143362
29 *183:53 *212:22 0.000112594
30 *183:53 *215:16 9.77264e-06
31 *183:70 *215:16 0.000224308
32 *183:131 *187:28 8.83176e-05
33 *183:131 *188:16 0
34 *183:131 *188:61 0.000320691
35 *183:131 *227:108 8.93791e-05
36 *183:131 *228:66 6.42772e-05
37 *183:168 *228:51 0.00148552
38 *183:180 *1557:B2 0.000253008
39 *183:180 *206:66 0.000580641
40 *183:180 *227:45 0.000233667
41 *1406:B *1520:A2 0.000358774
42 *1412:C *183:22 1.95435e-05
43 *1421:A *1520:A2 0.000265447
44 *1439:A *183:6 5.33005e-05
45 *1441:B *1547:B 2.2927e-05
46 *1502:A2 *183:22 0.000411475
47 *1515:B1_N *1514:A2 0.00019647
48 *1515:B1_N *183:131 0.000155886
49 *1527:A *183:22 5.46383e-06
50 *1547:A *1547:B 5.49995e-05
51 *35:55 *183:168 0.000135028
52 *37:31 *183:70 0
53 *42:10 *183:28 2.12521e-05
54 *42:10 *183:53 0.000272362
55 *49:28 *183:70 6.135e-05
56 *53:32 *183:180 0.000394371
57 *58:16 *183:131 0
58 *61:18 *1547:B 5.49995e-05
59 *69:20 *1520:A2 0.000968295
60 *71:10 *183:180 7.46707e-05
61 *75:18 *183:70 5.49544e-05
62 *77:20 *183:180 0.00134636
63 *98:10 *1547:B 0.000124012
64 *116:28 *183:70 0.000931239
65 *123:12 *183:180 9.25014e-06
66 *124:12 *183:180 0.00022176
67 *127:14 *183:22 0.000342734
68 *129:10 *1547:B 0.000144732
69 *129:36 *1547:B 2.22419e-05
70 *130:87 *183:180 0.000392027
71 *131:60 *183:22 0.000256405
72 *131:62 *183:22 3.97677e-05
73 *131:62 *183:28 0.000987105
74 *131:119 *1520:A2 0.000131103
75 *133:38 *183:180 0.000263548
76 *134:29 *183:70 0.00092954
77 *134:105 *183:131 9.55068e-05
78 *136:92 *183:22 0.000233053
79 *142:112 *183:131 0.000186282
80 *143:26 *183:22 2.39885e-05
81 *145:22 *183:168 0.000240963
82 *150:14 *1520:A2 0.00256372
83 *166:8 *183:168 0.00206281
84 *167:24 *183:22 0.00016273
85 *168:36 *183:168 9.17062e-05
86 *170:12 *183:131 4.85049e-06
87 *170:31 *183:131 0.000117378
88 *174:24 *183:168 0.000242677
89 *176:18 *183:28 0.000396761
90 *176:18 *183:53 0.000471368
91 *181:18 *183:22 0.000523833
*RES
1 *1439:X *183:6 10.6571 
2 *183:6 *183:22 49.8393 
3 *183:22 *183:28 19.3571 
4 *183:28 *1520:A2 48.4429 
5 *183:28 *183:53 18.0179 
6 *183:53 *1503:A2 9.3 
7 *183:53 *183:70 23.3214 
8 *183:70 *1547:B 21.0857 
9 *183:70 *1537:B 9.3 
10 *183:22 *1527:B 9.3 
11 *183:6 *183:131 46.6696 
12 *183:131 *1514:A2 24.0411 
13 *183:131 *183:168 49.4018 
14 *183:168 *183:170 4.5 
15 *183:170 *183:180 41.2321 
16 *183:180 *1557:A2 9.3 
17 *183:170 *1440:B 9.3 
*END

*D_NET *184 0.010036
*CONN
*I *1447:B1 I *D sky130_fd_sc_hd__a311o_1
*I *1440:Y O *D sky130_fd_sc_hd__nor2_1
*CAP
1 *1447:B1 0.000796133
2 *1440:Y 0.00120398
3 *184:16 0.00200011
4 *1447:B1 *1400:C 8.67814e-06
5 *1447:B1 *1447:A1 5.46383e-06
6 *1447:B1 *1447:A2 0.000726274
7 *1447:B1 *1447:C1 0.00080881
8 *1447:B1 *1557:B2 0.000369825
9 *1447:B1 *188:96 0.00076417
10 *1447:B1 *205:21 2.12733e-05
11 *184:16 *195:48 3.61785e-05
12 *184:16 *206:66 0.00035132
13 *184:16 *211:24 4.15618e-05
14 *184:16 *222:10 0.000140243
15 *184:16 *222:37 0.000918645
16 *184:16 *228:51 0.000303705
17 *1422:A_N *184:16 0.000115444
18 *1422:B *184:16 9.15842e-06
19 *1556:A1 *1447:B1 0.00023792
20 *32:20 *184:16 9.96487e-05
21 *103:12 *1447:B1 0.000493698
22 *122:16 *184:16 0.000344485
23 *128:8 *1447:B1 0
24 *130:87 *184:16 9.41642e-05
25 *164:23 *1447:B1 0.000145119
*RES
1 *1440:Y *184:16 45.7464 
2 *184:16 *1447:B1 39.6929 
*END

*D_NET *185 0.0228073
*CONN
*I *1442:B I *D sky130_fd_sc_hd__nor2_4
*I *1502:C1 I *D sky130_fd_sc_hd__a211o_1
*I *1519:A3 I *D sky130_fd_sc_hd__a31o_1
*I *1441:Y O *D sky130_fd_sc_hd__nand2_2
*CAP
1 *1442:B 0.000469174
2 *1502:C1 0.000680872
3 *1519:A3 0.00222411
4 *1441:Y 0.000803858
5 *185:25 0.00222185
6 *185:10 0.00409978
7 *1442:B *1443:C_N 0.000159224
8 *1442:B *186:18 5.33005e-05
9 *1442:B *204:38 0.000309049
10 *1442:B *230:54 2.59355e-05
11 *1502:C1 *1482:A1 0.000189195
12 *1502:C1 *1502:A1 1.98839e-05
13 *1502:C1 *204:38 0.0017375
14 *185:10 *209:85 0.000129558
15 *1427:B *1442:B 7.79937e-05
16 *1435:A *1502:C1 0.00051141
17 *1471:B1 *185:10 0.000946254
18 *1519:A1 *1519:A3 4.13496e-05
19 *1519:B1 *1519:A3 0.000684646
20 *42:8 *185:25 0.0014451
21 *42:10 *185:10 0.00118479
22 *45:21 *185:10 7.43984e-05
23 *75:12 *1502:C1 9.26121e-05
24 *108:18 *1502:C1 0.000137983
25 *135:51 *1442:B 0.000374124
26 *135:51 *1502:C1 1.55629e-05
27 *135:57 *1442:B 0.000328477
28 *136:73 *1442:B 6.18969e-06
29 *137:55 *185:10 0.000377762
30 *137:112 *185:10 0.00109416
31 *137:131 *185:10 6.86117e-05
32 *142:30 *1519:A3 0.000547386
33 *145:28 *1519:A3 0.000261801
34 *147:10 *1502:C1 0.000146474
35 *147:23 *1502:C1 0.000339924
36 *149:73 *1442:B 9.22052e-06
37 *155:20 *185:10 0.000258184
38 *179:10 *1519:A3 0.000643019
39 *179:10 *185:25 1.65914e-05
*RES
1 *1441:Y *185:10 46.3536 
2 *185:10 *1519:A3 43.4429 
3 *185:10 *185:25 19 
4 *185:25 *1502:C1 38.1571 
5 *185:25 *1442:B 26.6571 
*END

*D_NET *186 0.0410121
*CONN
*I *1512:B1 I *D sky130_fd_sc_hd__o21a_1
*I *1554:B I *D sky130_fd_sc_hd__and2b_1
*I *1523:B1 I *D sky130_fd_sc_hd__o22a_1
*I *1446:B1 I *D sky130_fd_sc_hd__o22a_1
*I *1546:B1 I *D sky130_fd_sc_hd__o22a_1
*I *1536:B1 I *D sky130_fd_sc_hd__o22a_1
*I *1442:Y O *D sky130_fd_sc_hd__nor2_4
*CAP
1 *1512:B1 0.000801693
2 *1554:B 0
3 *1523:B1 0.000912336
4 *1446:B1 0
5 *1546:B1 1.69531e-05
6 *1536:B1 0.000720908
7 *1442:Y 0
8 *186:65 0.00469352
9 *186:61 0.00378119
10 *186:59 0.00117181
11 *186:32 0.00169262
12 *186:28 0.00110201
13 *186:26 0.000641802
14 *186:18 0.0026296
15 *186:4 0.00247125
16 *1512:B1 *207:42 0.00136842
17 *1523:B1 *230:10 0.000216907
18 *1536:B1 *213:26 0.000649045
19 *186:18 *1545:B1 3.09506e-05
20 *186:18 *209:106 0.000139632
21 *186:18 *220:16 0.00121065
22 *186:18 *230:54 9.8278e-05
23 *186:26 *192:32 0.000312767
24 *186:65 *215:12 1.12195e-05
25 *186:65 *230:10 0.00036543
26 *1442:B *186:18 5.33005e-05
27 *1523:B2 *1523:B1 2.11419e-05
28 *1549:A1 *186:65 0.000165117
29 *1549:A2 *186:65 2.62823e-05
30 *1549:B1 *186:65 2.26528e-05
31 *1549:B2 *186:65 0.000238157
32 *1549:C1 *186:65 9.30625e-05
33 *1559:B1 *186:26 0.000539342
34 *1559:B1 *186:28 0.000145177
35 *33:49 *186:65 5.49489e-05
36 *36:16 *186:18 0.000814547
37 *37:10 *186:18 6.05161e-06
38 *44:22 *186:18 0.000163338
39 *61:18 *186:65 4.36243e-05
40 *75:18 *186:18 0
41 *76:16 *186:18 0
42 *79:18 *186:26 0.000311121
43 *84:26 *1512:B1 5.50052e-05
44 *98:8 *186:65 2.54558e-06
45 *104:30 *1536:B1 0.00281746
46 *114:8 *1546:B1 5.33005e-05
47 *115:12 *186:65 0.00167063
48 *119:10 *186:26 0.0013172
49 *119:10 *186:28 0.000198119
50 *119:10 *186:32 0.000949897
51 *130:67 *186:18 0.000118315
52 *131:125 *1523:B1 0
53 *135:57 *1512:B1 0.000297335
54 *135:57 *186:59 0.00100566
55 *136:69 *186:59 7.29667e-05
56 *136:73 *186:59 0.00038078
57 *137:16 *1546:B1 5.33005e-05
58 *137:16 *186:32 0
59 *137:43 *186:18 0.000508844
60 *137:55 *186:18 0.000194882
61 *141:64 *186:18 0.000121433
62 *149:16 *1523:B1 0.00133357
63 *149:67 *1512:B1 0.000147886
64 *149:67 *186:59 0.000278477
65 *149:87 *186:18 8.99608e-05
66 *158:55 *186:32 0.000231069
67 *160:16 *1523:B1 0.000199782
68 *168:18 *186:18 0
69 *168:18 *186:26 0.000740766
70 *168:36 *186:26 3.63298e-05
71 *168:36 *186:28 0
72 *168:36 *186:32 0
73 *168:44 *1536:B1 0.000399756
74 *176:28 *186:32 0
*RES
1 *1442:Y *186:4 9.3 
2 *186:4 *186:18 49.6964 
3 *186:18 *186:26 29.4286 
4 *186:26 *186:28 2.85714 
5 *186:28 *186:32 24.0536 
6 *186:32 *1536:B1 36.1214 
7 *186:28 *1546:B1 14.3357 
8 *186:26 *1446:B1 13.8 
9 *186:4 *186:59 17.6786 
10 *186:59 *186:61 4.5 
11 *186:61 *186:65 49.0179 
12 *186:65 *1523:B1 41.0679 
13 *186:65 *1554:B 9.3 
14 *186:59 *1512:B1 32.3714 
*END

*D_NET *187 0.0106112
*CONN
*I *1444:A I *D sky130_fd_sc_hd__clkbuf_4
*I *1443:X O *D sky130_fd_sc_hd__or3b_1
*CAP
1 *1444:A 0
2 *1443:X 0.000684409
3 *187:28 0.000930839
4 *187:24 0.00161525
5 *187:24 *1462:B 9.20635e-06
6 *187:24 *1478:B 0.000517157
7 *187:28 *1390:A 0.000779718
8 *187:28 *222:66 0.000365222
9 *187:28 *227:102 0.000549557
10 *187:28 *228:66 0
11 *1411:A1 *187:24 0.000165637
12 *1478:C *187:24 9.48188e-05
13 *1548:A1 *187:24 8.76349e-05
14 *1548:B1 *187:24 9.77046e-05
15 *1548:C1 *187:24 5.33005e-05
16 *1548:C1 *187:28 3.10885e-05
17 *36:16 *187:24 7.62475e-05
18 *116:20 *187:24 0.000267278
19 *131:48 *187:28 0.000153047
20 *134:105 *187:28 0.00104162
21 *142:94 *187:28 0.000109737
22 *142:112 *187:28 2.14474e-05
23 *170:16 *187:28 0.000138178
24 *170:31 *187:24 4.26565e-05
25 *170:31 *187:28 0.00269111
26 *183:131 *187:28 8.83176e-05
*RES
1 *1443:X *187:24 45.1929 
2 *187:24 *187:28 43.4821 
3 *187:28 *1444:A 9.3 
*END

*D_NET *188 0.0407812
*CONN
*I *1445:B1 I *D sky130_fd_sc_hd__a21oi_1
*I *1545:B1 I *D sky130_fd_sc_hd__a21oi_1
*I *1535:B1 I *D sky130_fd_sc_hd__a21oi_2
*I *1557:B2 I *D sky130_fd_sc_hd__o22a_1
*I *1514:B2 I *D sky130_fd_sc_hd__o221a_1
*I *1501:A I *D sky130_fd_sc_hd__or3b_2
*I *1522:B1 I *D sky130_fd_sc_hd__a21oi_2
*I *1444:X O *D sky130_fd_sc_hd__clkbuf_4
*CAP
1 *1445:B1 0.00105955
2 *1545:B1 6.54766e-05
3 *1535:B1 0.000345387
4 *1557:B2 0.000367934
5 *1514:B2 5.88403e-05
6 *1501:A 0.000753252
7 *1522:B1 0.000274671
8 *1444:X 0.000107429
9 *188:96 0.00167039
10 *188:81 0.00389559
11 *188:77 0.00292396
12 *188:69 0.00240991
13 *188:61 0.00347739
14 *188:18 0.00174993
15 *188:16 0.00139183
16 *188:6 0.00151314
17 *1445:B1 *227:108 0.000353178
18 *1445:B1 *228:78 1.58357e-05
19 *1501:A *1477:A1 0.000831065
20 *1557:B2 *1447:C1 0
21 *188:6 *1469:A 2.42516e-05
22 *188:6 *1469:B 9.83388e-05
23 *188:16 *228:66 2.29078e-05
24 *188:18 *1514:A1 0
25 *188:18 *218:18 0.000123288
26 *188:69 *1585:A 0.00047978
27 *188:69 *196:68 0.000135028
28 *188:77 *197:37 0.0011267
29 *188:77 *198:32 0.000170373
30 *188:81 *211:8 0.000636305
31 out[6] *188:18 0
32 *1424:A *188:96 0.000275772
33 *1429:B *188:81 9.60939e-05
34 *1447:B1 *1557:B2 0.000369825
35 *1447:B1 *188:96 0.00076417
36 *1477:A2 *1501:A 0
37 *1477:B1 *1501:A 8.60236e-06
38 *1514:A2 *188:16 0
39 *1514:B1 *1514:B2 2.25101e-05
40 *1515:A1 *1445:B1 9.60337e-06
41 *1515:A2 *1445:B1 0.000166093
42 *1515:B1_N *1445:B1 0.000289011
43 *1515:B1_N *188:61 0.000779696
44 *1522:A1 *1522:B1 0.000100037
45 *1522:A1 *188:18 0
46 *1522:A2 *188:18 0
47 *1524:A1 *188:96 0.00121228
48 *1535:A1 *1535:B1 0.000117004
49 *1535:A1 *188:96 3.17148e-05
50 *1552:A *1501:A 3.97657e-05
51 *41:10 *188:96 0.00320984
52 *41:27 *188:96 0.000183868
53 *43:16 *188:61 0.000182592
54 *50:10 *1522:B1 0
55 *50:10 *188:18 0
56 *58:16 *188:16 0.000272679
57 *58:16 *188:61 0
58 *89:12 *188:96 0.000177307
59 *92:14 *1522:B1 5.7903e-06
60 *94:10 *188:69 0.000219289
61 *94:10 *188:77 0.000472142
62 *113:16 *1545:B1 7.97383e-06
63 *124:12 *1557:B2 0.000387629
64 *127:14 *188:69 0.000723795
65 *131:8 *188:18 0
66 *132:14 *188:69 0.000221498
67 *133:18 *188:96 4.00025e-05
68 *133:38 *1557:B2 9.96238e-05
69 *133:38 *188:96 7.2252e-05
70 *134:105 *188:16 0.000644399
71 *134:105 *188:18 0.00045447
72 *136:44 *1535:B1 1.22751e-05
73 *136:61 *1535:B1 3.80953e-06
74 *137:28 *188:77 0.000315887
75 *149:87 *1545:B1 3.19935e-05
76 *149:87 *188:77 2.2628e-05
77 *164:23 *188:96 0.000570458
78 *166:16 *1445:B1 9.71197e-05
79 *167:34 *188:96 0.000431034
80 *168:18 *1545:B1 2.89861e-05
81 *170:18 *188:81 0.00016093
82 *170:31 *1445:B1 0
83 *176:18 *188:77 0.000762368
84 *183:131 *188:16 0
85 *183:131 *188:61 0.000320691
86 *183:180 *1557:B2 0.000253008
87 *186:18 *1545:B1 3.09506e-05
*RES
1 *1444:X *188:6 11.0679 
2 *188:6 *188:16 18.1607 
3 *188:16 *188:18 13.4821 
4 *188:18 *1522:B1 18.8179 
5 *188:18 *1501:A 24.5143 
6 *188:16 *1514:B2 14.7643 
7 *188:6 *188:61 23.9643 
8 *188:61 *188:69 31.4643 
9 *188:69 *188:77 28.3393 
10 *188:77 *188:81 30.9107 
11 *188:81 *1557:B2 23.9607 
12 *188:81 *188:96 47.7857 
13 *188:96 *1535:B1 17.9429 
14 *188:69 *1545:B1 19.7777 
15 *188:61 *1445:B1 43.6571 
*END

*D_NET *189 0.0134141
*CONN
*I *1446:B2 I *D sky130_fd_sc_hd__o22a_1
*I *1445:Y O *D sky130_fd_sc_hd__a21oi_1
*CAP
1 *1446:B2 0.00198733
2 *1445:Y 0.00059322
3 *189:12 0.00284092
4 *189:8 0.00144681
5 *1446:B2 *1446:A1 0.00010011
6 *1446:B2 *227:81 5.49544e-05
7 *1446:B2 *227:102 0.000186817
8 *189:8 *205:42 5.25013e-05
9 *1412:A *189:12 0.00180344
10 *1426:A *189:12 5.91074e-05
11 *1461:B *1446:B2 2.12087e-05
12 *1461:C *1446:B2 8.1597e-05
13 *35:12 *1446:B2 9.83388e-05
14 *45:29 *189:12 0.000325939
15 *45:33 *189:12 0.000645846
16 *47:39 *189:12 0.000284269
17 *47:45 *189:12 0.00214053
18 *74:28 *189:12 0.000116366
19 *131:48 *189:12 0.000182235
20 *140:24 *1446:B2 0
21 *144:28 *1446:B2 4.17242e-05
22 *158:43 *1446:B2 5.39629e-06
23 *168:36 *1446:B2 0.000345444
*RES
1 *1445:Y *189:8 20.0857 
2 *189:8 *189:12 41.0536 
3 *189:12 *1446:B2 44.2643 
*END

*D_NET *190 0.0132525
*CONN
*I *1447:C1 I *D sky130_fd_sc_hd__a311o_1
*I *1446:X O *D sky130_fd_sc_hd__o22a_1
*CAP
1 *1447:C1 0.00185777
2 *1446:X 0.0017825
3 *190:24 0.00364027
4 *1447:C1 *205:21 0.00101827
5 *190:24 *195:48 4.88232e-06
6 *190:24 *199:25 1.35465e-05
7 *190:24 *206:66 0.000387003
8 *190:24 *227:66 0.00041504
9 *1447:B1 *1447:C1 0.00080881
10 *1481:A2 *190:24 0.000182378
11 *1504:B1 *1447:C1 3.95014e-05
12 *1557:B2 *1447:C1 0
13 *33:28 *190:24 0.00019286
14 *52:24 *1447:C1 0.000123625
15 *66:36 *190:24 0.000191337
16 *128:8 *1447:C1 0.00114171
17 *133:38 *1447:C1 0.00107664
18 *144:28 *190:24 0.000153837
19 *169:49 *190:24 0.000222531
*RES
1 *1446:X *190:24 47.9524 
2 *190:24 *1447:C1 44.1052 
*END

*D_NET *191 0.0100837
*CONN
*I *1481:B1 I *D sky130_fd_sc_hd__a211o_1
*I *1447:X O *D sky130_fd_sc_hd__a311o_1
*CAP
1 *1481:B1 0.00135079
2 *1447:X 0.000292407
3 *191:12 0.00304436
4 *191:8 0.00198597
5 *191:8 *205:12 0.000140718
6 *191:12 *228:12 8.58946e-05
7 *191:12 *228:16 0
8 *1481:A1 *1481:B1 0.000338844
9 *1534:A1 *1481:B1 0.000226507
10 *1534:B1 *1481:B1 0.000571216
11 *1577:A *191:12 0
12 *56:62 *191:12 0.00204697
*RES
1 *1447:X *191:8 17.6214 
2 *191:8 *191:12 43.1786 
3 *191:12 *1481:B1 34.0857 
*END

*D_NET *192 0.0277464
*CONN
*I *1450:A3 I *D sky130_fd_sc_hd__o31a_2
*I *1454:C I *D sky130_fd_sc_hd__and3_4
*I *1453:A2 I *D sky130_fd_sc_hd__a21oi_2
*I *1465:A2 I *D sky130_fd_sc_hd__o21a_1
*I *1448:X O *D sky130_fd_sc_hd__or2_4
*CAP
1 *1450:A3 0.00020606
2 *1454:C 0.000304375
3 *1453:A2 0
4 *1465:A2 0
5 *1448:X 0.000218275
6 *192:32 0.0018168
7 *192:30 0.0018168
8 *192:28 0.00130023
9 *192:20 0.00151993
10 *192:16 0.000827341
11 *192:10 0.000727602
12 *1450:A3 *1450:A2 0.00117178
13 *1450:A3 *1450:B1 1.59373e-05
14 *1454:C *1454:B 0.000524672
15 *1454:C *198:12 0.000173322
16 *1454:C *224:31 0.000855794
17 *192:10 *1399:B1 9.90367e-05
18 *192:16 *194:16 0.0007072
19 *192:20 *1448:A 9.10431e-06
20 *192:20 *194:16 0.000353239
21 *192:20 *197:10 8.15095e-05
22 *192:20 *208:71 6.38303e-05
23 *192:20 *224:31 7.91281e-05
24 *192:28 *1448:A 0.000289294
25 *192:28 *194:18 2.72449e-05
26 *192:28 *194:24 6.10433e-05
27 *192:28 *197:10 0.000180769
28 *192:28 *205:53 0.000376687
29 *192:28 *224:23 1.32056e-05
30 *192:32 *1465:B1 9.41642e-05
31 *192:32 *1507:B1 0.00017754
32 *192:32 *225:70 0.000306083
33 *1403:A *192:28 0.000149641
34 *1403:B *192:28 0.000400076
35 *1417:A_N *192:32 0.00102434
36 *1422:A_N *192:32 0.000175892
37 *1492:A2 *1450:A3 0.00121517
38 *1517:B *192:10 0.000160976
39 *1517:B *192:16 0.000765552
40 *1517:B *192:20 0.000377233
41 *1540:A3 *192:28 0.000110498
42 *1556:A1 *192:32 7.95355e-05
43 *46:10 *192:28 0.000185248
44 *61:26 *1454:C 2.12005e-05
45 *79:12 *192:32 0.00144933
46 *79:18 *192:32 0.00128325
47 *115:12 *1454:C 0.000771456
48 *123:12 *192:32 5.7639e-05
49 *136:28 *192:32 8.56654e-05
50 *136:92 *192:28 0.000991512
51 *142:16 *192:28 6.09572e-05
52 *142:170 *1454:C 0.000310294
53 *143:10 *192:10 0.000123264
54 *143:10 *192:16 2.31704e-05
55 *149:63 *192:10 0
56 *153:39 *192:32 0.00127032
57 *181:18 *192:28 0.00149521
58 *181:38 *192:28 0.000213868
59 *183:22 *192:28 0.000234363
60 *186:26 *192:32 0.000312767
*RES
1 *1448:X *192:10 19.425 
2 *192:10 *192:16 11.1071 
3 *192:16 *192:20 11.9107 
4 *192:20 *192:28 46.6786 
5 *192:28 *192:30 4.5 
6 *192:30 *192:32 53.1071 
7 *192:32 *1465:A2 9.3 
8 *192:20 *1453:A2 9.3 
9 *192:16 *1454:C 27.4786 
10 *192:10 *1450:A3 25.425 
*END

*D_NET *193 0.0206671
*CONN
*I *1591:A I *D sky130_fd_sc_hd__dlymetal6s2s_1
*I *1482:B1 I *D sky130_fd_sc_hd__o31a_4
*I *1456:A I *D sky130_fd_sc_hd__and3_1
*I *1507:B1 I *D sky130_fd_sc_hd__o21a_1
*I *1465:B1 I *D sky130_fd_sc_hd__o21a_1
*I *1449:Y O *D sky130_fd_sc_hd__nand3b_4
*CAP
1 *1591:A 0.000252154
2 *1482:B1 0
3 *1456:A 0.000878246
4 *1507:B1 0.000143027
5 *1465:B1 5.48473e-05
6 *1449:Y 0
7 *193:56 0.00242741
8 *193:18 0.00146821
9 *193:8 0.00335544
10 *193:6 0.000788102
11 *1456:A *194:49 0.000144712
12 *1507:B1 *200:18 8.39698e-05
13 *1591:A *209:16 3.56025e-05
14 *1591:A *223:10 0.000136682
15 *1591:A *225:78 0.000173083
16 *193:8 *209:16 1.76135e-05
17 *193:8 *225:78 0.000247228
18 *193:56 *200:55 0.00016723
19 *193:56 *205:21 0.000498937
20 *1435:B *1456:A 0.000146241
21 *1456:B *1456:A 4.82947e-05
22 *1456:C *1456:A 0.000370798
23 *1507:A2 *193:18 0.000165432
24 *1539:A2 *193:18 0.000721426
25 *1539:B1_N *193:56 0.000224096
26 *30:8 *1456:A 0.00107035
27 *32:20 *193:56 0.000163466
28 *39:20 *1507:B1 7.15905e-06
29 *40:29 *1591:A 0.000473703
30 *53:28 *193:8 0.000669628
31 *53:28 *193:18 0.000100248
32 *55:14 *193:56 0.000136951
33 *75:12 *193:56 0.0005474
34 *79:12 *1507:B1 0.00026432
35 *82:24 *193:8 0.000125441
36 *108:18 *193:56 0.00202024
37 *109:10 *1591:A 5.59013e-05
38 *121:10 *1465:B1 5.41794e-05
39 *121:10 *193:18 0.00021335
40 *122:20 *193:8 0.000425827
41 *122:20 *193:18 5.107e-05
42 *136:28 *1465:B1 0.000122228
43 *136:28 *1507:B1 2.17276e-05
44 *136:28 *193:18 0.000114758
45 *138:16 *193:8 0
46 *155:36 *1591:A 0.000108456
47 *156:14 *1456:A 0.000883468
48 *156:14 *193:56 0.000216755
49 *192:32 *1465:B1 9.41642e-05
50 *192:32 *1507:B1 0.00017754
*RES
1 *1449:Y *193:6 13.8 
2 *193:6 *193:8 15.3036 
3 *193:8 *193:18 27.2857 
4 *193:18 *1465:B1 15.4786 
5 *193:18 *1507:B1 18.0679 
6 *193:8 *193:56 48.0536 
7 *193:56 *1456:A 40.0321 
8 *193:56 *1482:B1 9.3 
9 *193:6 *1591:A 21.2286 
*END

*D_NET *194 0.0209099
*CONN
*I *1472:B1 I *D sky130_fd_sc_hd__a21o_1
*I *1482:A3 I *D sky130_fd_sc_hd__o31a_4
*I *1451:B I *D sky130_fd_sc_hd__xnor2_2
*I *1450:X O *D sky130_fd_sc_hd__o31a_2
*CAP
1 *1472:B1 0
2 *1482:A3 0
3 *1451:B 0.000715214
4 *1450:X 0.00122771
5 *194:49 0.000889413
6 *194:24 0.00203794
7 *194:18 0.000617606
8 *194:16 0.00141201
9 *1451:B *204:34 0.00235873
10 *194:16 *1450:A2 9.03136e-05
11 *194:16 *1450:B1 0.000228791
12 *194:16 *208:71 0.00024203
13 *194:16 *215:16 0.000216755
14 *194:18 *1448:A 0.000521949
15 *194:24 *1443:B 2.82509e-05
16 *194:24 *1472:A1 0.000200178
17 *194:24 *204:34 0.000413859
18 *194:49 *228:78 0.000178847
19 *1428:A *194:16 0.000564328
20 *1431:B1 *194:16 4.43256e-05
21 *1435:A *194:49 0.000109994
22 *1435:B *194:49 0.000767709
23 *1456:A *194:49 0.000144712
24 *1540:A3 *194:18 0.000103262
25 *44:22 *194:49 0.00079104
26 *46:10 *194:24 0.000482666
27 *68:12 *1451:B 0.000373817
28 *68:16 *1451:B 0.000347915
29 *135:32 *194:49 0.000495224
30 *135:51 *194:49 0.000145726
31 *136:92 *194:24 0.000209584
32 *137:59 *1451:B 0.000409822
33 *137:59 *194:24 0.000160974
34 *137:63 *194:24 0.000306154
35 *141:24 *194:49 0.000787066
36 *141:64 *1451:B 0.000351157
37 *141:64 *194:24 5.33005e-05
38 *143:10 *194:16 0.000256026
39 *147:25 *194:49 0.000180496
40 *149:67 *194:18 0
41 *173:37 *194:49 0.000373967
42 *181:38 *194:16 0.000135028
43 *181:38 *194:18 0.000538307
44 *181:38 *194:24 0.000249019
45 *192:16 *194:16 0.0007072
46 *192:20 *194:16 0.000353239
47 *192:28 *194:18 2.72449e-05
48 *192:28 *194:24 6.10433e-05
*RES
1 *1450:X *194:16 48.7464 
2 *194:16 *194:18 7.41071 
3 *194:18 *194:24 18.6071 
4 *194:24 *1451:B 32.425 
5 *194:24 *194:49 47.3929 
6 *194:49 *1482:A3 9.3 
7 *194:18 *1472:B1 13.8 
*END

*D_NET *195 0.0223968
*CONN
*I *1469:B I *D sky130_fd_sc_hd__or2_1
*I *1452:B I *D sky130_fd_sc_hd__nand2_4
*I *1451:Y O *D sky130_fd_sc_hd__xnor2_2
*CAP
1 *1469:B 0.00151777
2 *1452:B 4.1463e-05
3 *1451:Y 0.00127195
4 *195:48 0.00130844
5 *195:20 0.00343828
6 *195:12 0.00192549
7 *1452:B *226:27 0.00018172
8 *1469:B *1469:A 0.000179313
9 *195:12 *1409:D 0.000291782
10 *195:12 *204:27 0.000155641
11 *195:12 *204:34 6.07106e-05
12 *195:12 *210:28 0.000216755
13 *195:12 *222:39 0.00164261
14 *195:20 *211:24 8.10148e-05
15 *195:20 *211:56 0.000168067
16 *1422:A_N *195:12 0.000209978
17 *1422:A_N *195:48 0.000136958
18 *1458:A1 *195:12 0.000219184
19 *1460:B_N *1469:B 0.000344835
20 *1481:A2 *195:48 3.03519e-06
21 *1496:A1 *1469:B 0.00114382
22 *33:28 *195:20 0.000411556
23 *33:28 *195:48 0.000193165
24 *35:55 *1469:B 9.41642e-05
25 *67:24 *195:20 0.000121549
26 *68:8 *195:20 0.000693233
27 *69:8 *1469:B 5.33005e-05
28 *69:8 *195:48 0.000349433
29 *69:14 *195:12 3.6236e-05
30 *77:20 *195:48 0.000307165
31 *95:30 *195:48 0.00032559
32 *112:10 *195:12 4.10809e-05
33 *112:10 *195:48 0.000261707
34 *124:12 *195:48 0.000309008
35 *142:112 *1469:B 0.00203206
36 *153:12 *195:20 0.000205421
37 *155:36 *195:12 4.58764e-05
38 *156:39 *195:12 0.00118404
39 *158:14 *1469:B 0.000338675
40 *164:54 *195:48 0.000394214
41 *167:40 *1452:B 0.000180066
42 *169:49 *195:12 0.000141019
43 *184:16 *195:48 3.61785e-05
44 *188:6 *1469:B 9.83388e-05
45 *190:24 *195:48 4.88232e-06
*RES
1 *1451:Y *195:12 49.8796 
2 *195:12 *195:20 17.8301 
3 *195:20 *195:48 47.875 
4 *195:48 *1452:B 15.5679 
5 *195:20 *1469:B 44.8893 
*END

*D_NET *196 0.0414084
*CONN
*I *1488:A2 I *D sky130_fd_sc_hd__a31o_1
*I *1470:A I *D sky130_fd_sc_hd__nand2_1
*I *1478:B I *D sky130_fd_sc_hd__nand3_1
*I *1490:A2 I *D sky130_fd_sc_hd__a311oi_4
*I *1477:A1 I *D sky130_fd_sc_hd__a21o_1
*I *1452:Y O *D sky130_fd_sc_hd__nand2_4
*CAP
1 *1488:A2 0.000656004
2 *1470:A 0
3 *1478:B 0.000455112
4 *1490:A2 0
5 *1477:A1 0.000549917
6 *1452:Y 0.00140576
7 *196:114 0.00169126
8 *196:95 0.00258757
9 *196:68 0.00319692
10 *196:47 0.00190685
11 *196:26 0.00182168
12 *196:18 0.00196017
13 *1477:A1 *1553:B 2.59093e-05
14 *1477:A1 *213:26 0
15 *1478:B *1399:A2 0.000173797
16 *1478:B *202:48 0.000878315
17 *1488:A2 *1399:B1 0.000525568
18 *196:18 *210:52 0
19 *196:18 *226:27 0.00149367
20 *196:18 *226:48 4.20689e-05
21 *196:26 *226:48 0.00124344
22 *196:47 *1469:A 0
23 *196:68 *205:53 1.18451e-05
24 *196:114 *1503:A1 2.00751e-05
25 *196:114 *201:84 0
26 *196:114 *212:22 0.000252981
27 *1421:B *196:95 0
28 *1432:A *196:114 0.000344835
29 *1471:B1 *196:114 0.00172559
30 *1477:A2 *1477:A1 0.000645617
31 *1477:B1 *1477:A1 9.99853e-05
32 *1478:A *1478:B 1.77668e-05
33 *1478:C *1478:B 6.95234e-05
34 *1481:A2 *196:18 2.98912e-05
35 *1488:A1 *1488:A2 0.000330865
36 *1488:A3 *1488:A2 0.0010243
37 *1488:B1 *1488:A2 0.00011564
38 *1501:A *1477:A1 0.000831065
39 *1501:C_N *1477:A1 0.000775769
40 *1501:C_N *196:47 0.000461626
41 *1518:B1 *1488:A2 7.55804e-05
42 *1530:A *196:26 0.00028959
43 *1530:C_N *196:26 0.000392026
44 *1548:A1 *196:95 0
45 *1548:A3 *1478:B 0.000102545
46 *1552:A *1477:A1 6.09919e-05
47 *37:10 *196:95 2.06178e-05
48 *37:10 *196:114 5.41164e-05
49 *41:44 *1488:A2 0.000703166
50 *42:10 *196:114 0.000100823
51 *45:21 *196:114 0
52 *47:20 *1477:A1 0.000323206
53 *47:20 *196:47 6.54968e-05
54 *49:55 *196:68 0.000141146
55 *53:74 *196:18 7.58841e-05
56 *60:26 *196:95 0.000227038
57 *61:18 *1488:A2 7.55804e-05
58 *64:10 *196:26 0.000909248
59 *72:29 *196:47 3.37139e-05
60 *72:29 *196:68 0.000179472
61 *74:28 *1477:A1 0.000218792
62 *74:28 *196:47 0.000171395
63 *80:10 *196:47 0.000344952
64 *102:12 *196:114 0.00119905
65 *114:8 *196:18 5.49489e-05
66 *116:20 *1478:B 0.000113647
67 *119:10 *196:18 4.44214e-05
68 *124:12 *196:18 9.5609e-06
69 *133:162 *196:114 2.8266e-06
70 *136:92 *196:68 0.000958156
71 *137:28 *196:18 2.571e-05
72 *137:131 *196:114 0
73 *141:28 *196:47 0.000339645
74 *143:10 *196:95 0.000327999
75 *143:26 *196:68 0.000746543
76 *143:26 *196:95 2.31791e-05
77 *143:30 *196:47 0.000965734
78 *143:30 *196:68 0.000421536
79 *151:33 *196:68 0.00195485
80 *151:33 *196:95 0.000352892
81 *167:24 *196:68 5.38293e-05
82 *175:20 *196:114 0.000308595
83 *175:24 *196:114 0.000145945
84 *176:28 *196:18 0.000151726
85 *183:22 *196:68 0.000475315
86 *183:53 *196:114 0.000143362
87 *187:24 *1478:B 0.000517157
88 *188:69 *196:68 0.000135028
*RES
1 *1452:Y *196:18 47.7464 
2 *196:18 *196:26 23.8571 
3 *196:26 *1477:A1 34.4607 
4 *196:26 *196:47 20.3214 
5 *196:47 *1490:A2 13.8 
6 *196:47 *196:68 47.6964 
7 *196:68 *1478:B 35.242 
8 *196:68 *196:95 14.1929 
9 *196:95 *1470:A 13.8 
10 *196:95 *196:114 44.8214 
11 *196:114 *1488:A2 35.6036 
*END

*D_NET *197 0.0161605
*CONN
*I *1455:A1 I *D sky130_fd_sc_hd__o21ai_4
*I *1462:B I *D sky130_fd_sc_hd__or3_1
*I *1453:Y O *D sky130_fd_sc_hd__a21oi_2
*CAP
1 *1455:A1 0
2 *1462:B 0.000499229
3 *1453:Y 0.000441976
4 *197:37 0.00164749
5 *197:35 0.00241021
6 *197:10 0.00170392
7 *1462:B *1443:B 1.02504e-05
8 *1462:B *208:71 9.25014e-06
9 *197:10 *1448:A 0
10 *197:10 *208:71 0.000826754
11 *197:10 *224:23 6.05161e-06
12 *197:35 *1443:C_N 0.00055613
13 *197:37 *198:32 0.000310037
14 *1406:B *197:35 0.000687326
15 *1421:A *197:35 0.000365847
16 *1462:A *1462:B 6.05161e-06
17 *1478:C *1462:B 9.40041e-05
18 *1520:A2 *197:35 2.59355e-05
19 *42:10 *197:37 0.000512862
20 *97:12 *197:37 0.00100244
21 *137:28 *197:37 0.000136341
22 *137:55 *197:37 0.000376818
23 *140:24 *197:37 0.000309511
24 *142:16 *197:10 0.00012401
25 *142:123 *197:37 0.00074984
26 *143:26 *1462:B 1.69115e-05
27 *158:43 *197:37 0.000584579
28 *171:16 *197:35 0.000582179
29 *176:18 *197:37 0.000320196
30 *181:18 *1462:B 2.12521e-05
31 *181:18 *197:10 7.10033e-05
32 *183:28 *197:37 0.000353905
33 *187:24 *1462:B 9.20635e-06
34 *188:77 *197:37 0.0011267
35 *192:20 *197:10 8.15095e-05
36 *192:28 *197:10 0.000180769
*RES
1 *1453:Y *197:10 25.9071 
2 *197:10 *1462:B 19.9964 
3 *197:10 *197:35 28.7143 
4 *197:35 *197:37 48.3929 
5 *197:37 *1455:A1 13.8 
*END

*D_NET *198 0.0198732
*CONN
*I *1462:C I *D sky130_fd_sc_hd__or3_1
*I *1455:A2 I *D sky130_fd_sc_hd__o21ai_4
*I *1454:X O *D sky130_fd_sc_hd__and3_4
*CAP
1 *1462:C 0
2 *1455:A2 0
3 *1454:X 0.000922387
4 *198:32 0.00325747
5 *198:12 0.00417985
6 *198:12 *1454:A 0.000184297
7 *198:32 *212:22 0.000715796
8 *198:32 *222:45 0.00271655
9 *1425:A_N *198:32 0.000135968
10 *1428:A *198:12 9.25616e-05
11 *1432:A *198:32 0.000800738
12 *1454:C *198:12 0.000173322
13 *1468:A *198:32 0.000400122
14 *1529:B *198:32 0.000107625
15 *1548:C1 *198:12 0.000200661
16 *61:26 *198:12 1.65169e-05
17 *63:10 *198:32 0.000336842
18 *97:12 *198:32 0.000116155
19 *106:24 *198:32 0
20 *115:12 *198:12 9.67754e-05
21 *116:20 *198:12 0.000890168
22 *134:12 *198:32 8.40473e-05
23 *134:23 *198:12 0.000603585
24 *134:23 *198:32 1.37043e-05
25 *140:24 *198:32 0.000752145
26 *142:94 *198:12 2.5858e-05
27 *142:94 *198:32 0.000596272
28 *142:123 *198:32 0.000109146
29 *142:170 *198:12 0.000314742
30 *155:20 *198:32 8.40352e-05
31 *167:24 *198:32 0.00111297
32 *176:18 *198:32 0.000352471
33 *188:77 *198:32 0.000170373
34 *197:37 *198:32 0.000310037
*RES
1 *1454:X *198:12 39.6304 
2 *198:12 *198:32 45.0657 
3 *198:32 *1455:A2 9.3 
4 *198:12 *1462:C 13.8 
*END

*D_NET *199 0.0279959
*CONN
*I *1471:A2 I *D sky130_fd_sc_hd__a311o_4
*I *1550:A2 I *D sky130_fd_sc_hd__a31o_1
*I *1463:A I *D sky130_fd_sc_hd__and2_4
*I *1542:A I *D sky130_fd_sc_hd__nand2_1
*I *1455:Y O *D sky130_fd_sc_hd__o21ai_4
*CAP
1 *1471:A2 0.000801879
2 *1550:A2 0.000982144
3 *1463:A 0.000185994
4 *1542:A 0
5 *1455:Y 0
6 *199:42 0.00187792
7 *199:31 0.000477023
8 *199:29 0.00175783
9 *199:25 0.00157293
10 *199:16 0.00104188
11 *199:4 0.00105411
12 *1463:A *1397:A 0.000301881
13 *1463:A *230:54 0.000595922
14 *1550:A2 *224:8 3.35013e-05
15 *199:16 *220:34 0.000591782
16 *199:16 *227:66 2.85321e-05
17 *199:25 *227:66 7.25873e-06
18 *199:29 *227:66 0.000141703
19 *1386:B *1550:A2 7.24613e-05
20 *1429:A *199:29 0.000210546
21 *1432:A *199:29 0.000224928
22 *1455:B1 *199:16 2.39198e-05
23 *1455:B1 *199:29 3.20759e-05
24 *1471:A1 *1471:A2 0.00128528
25 *1543:B *199:16 5.49544e-05
26 *1549:B2 *1550:A2 0.000514623
27 *1550:A1 *1550:A2 0.00165542
28 *1550:A3 *1550:A2 0.000345251
29 *66:34 *1471:A2 1.90936e-05
30 *67:24 *1471:A2 2.06178e-05
31 *68:8 *199:16 0
32 *81:20 *199:16 0.00058393
33 *92:14 *199:16 0.000126381
34 *106:24 *199:16 0.000100699
35 *106:24 *199:29 0.000144126
36 *107:12 *199:29 0.000333484
37 *117:8 *1550:A2 4.48128e-05
38 *128:12 *1550:A2 0.00125717
39 *131:31 *199:16 0.000242913
40 *137:131 *1471:A2 0
41 *138:35 *1471:A2 0.000195555
42 *144:28 *199:16 5.50052e-05
43 *144:28 *199:25 4.34677e-05
44 *145:22 *199:29 0.000137288
45 *145:28 *199:29 0.000113017
46 *148:12 *1471:A2 4.15432e-05
47 *148:12 *199:42 1.78353e-05
48 *148:46 *199:29 0.0011899
49 *155:20 *1471:A2 0.000276316
50 *168:16 *1471:A2 0.00126735
51 *168:16 *199:29 0.000272009
52 *168:16 *199:31 0.000480303
53 *168:16 *199:42 0.000241205
54 *171:16 *199:29 0
55 *172:24 *199:29 1.12357e-05
56 *174:24 *199:16 0.000573542
57 *174:24 *199:29 0
58 *175:24 *1550:A2 5.03772e-05
59 *175:26 *199:29 0.00284116
60 *175:26 *199:31 0.000241682
61 *175:26 *199:42 9.42015e-05
62 *181:131 *199:16 0.00109437
63 *190:24 *199:25 1.35465e-05
*RES
1 *1455:Y *199:4 9.3 
2 *199:4 *199:16 41.3393 
3 *199:16 *1542:A 9.3 
4 *199:4 *199:25 5.03571 
5 *199:25 *199:29 47.8661 
6 *199:29 *199:31 6.34821 
7 *199:31 *1463:A 19.675 
8 *199:31 *199:42 3.16071 
9 *199:42 *1550:A2 40.3536 
10 *199:42 *1471:A2 38.2643 
*END

*D_NET *200 0.0314144
*CONN
*I *1404:A I *D sky130_fd_sc_hd__clkbuf_4
*I *1410:A1 I *D sky130_fd_sc_hd__a31o_1
*I *1562:X O *D sky130_fd_sc_hd__dlymetal6s2s_1
*CAP
1 *1404:A 0.00110369
2 *1410:A1 0
3 *1562:X 0.0005134
4 *200:55 0.00283777
5 *200:34 0.00255231
6 *200:24 0.00641771
7 *200:18 0.00264473
8 *1404:A *1409:B 9.22948e-05
9 *1404:A *210:22 0.000286236
10 *1404:A *211:56 0.000317686
11 *1404:A *215:12 0.000283448
12 *1404:A *225:103 9.90431e-05
13 *200:18 *206:16 0.000102631
14 *200:18 *206:35 5.72987e-05
15 *200:24 *211:8 0.000363821
16 *200:55 *211:56 0.000120151
17 *1417:A_N *200:34 0.000224314
18 *1422:B *200:55 0.000439064
19 *1502:A2 *200:34 0.000125724
20 *1507:B1 *200:18 8.39698e-05
21 *1518:B1 *1404:A 0
22 *1518:C1 *1404:A 0.00144756
23 *32:20 *200:24 0.000266092
24 *32:20 *200:55 0.000739108
25 *32:52 *1404:A 1.07807e-05
26 *33:49 *1404:A 0.000481737
27 *39:20 *200:18 0.000225419
28 *52:24 *200:55 4.83837e-05
29 *61:18 *1404:A 0.000370633
30 *66:34 *200:55 0.00102612
31 *66:36 *200:24 0.000267814
32 *66:36 *200:55 0.00104485
33 *67:24 *1404:A 0.000168219
34 *67:24 *200:55 0.000280972
35 *116:28 *1404:A 3.11713e-05
36 *117:16 *1404:A 0.000478089
37 *149:48 *1404:A 9.90431e-05
38 *153:39 *200:34 0.00325737
39 *169:49 *200:55 0
40 *170:18 *200:24 0.0020319
41 *181:107 *200:18 0.000306591
42 *193:56 *200:55 0.00016723
*RES
1 *1562:X *200:18 28.925 
2 *200:18 *200:24 34.7857 
3 *200:24 *200:34 48.125 
4 *200:34 *1410:A1 9.3 
5 *200:24 *200:55 31.2372 
6 *200:55 *1404:A 48.7196 
*END

*D_NET *201 0.0395117
*CONN
*I *1448:B I *D sky130_fd_sc_hd__or2_4
*I *1409:C I *D sky130_fd_sc_hd__and4_1
*I *1400:B I *D sky130_fd_sc_hd__and4_2
*I *1408:A2 I *D sky130_fd_sc_hd__a22o_1
*I *1389:A I *D sky130_fd_sc_hd__buf_4
*I *1563:X O *D sky130_fd_sc_hd__buf_2
*CAP
1 *1448:B 0.000381788
2 *1409:C 0
3 *1400:B 0
4 *1408:A2 0
5 *1389:A 3.82418e-05
6 *1563:X 0.000905258
7 *201:84 0.00198944
8 *201:71 0.00263969
9 *201:49 0.0018214
10 *201:33 0.00269997
11 *201:27 0.00192597
12 *201:23 0.00248048
13 *201:6 0.00134454
14 *1448:B *1399:B1 0.00104946
15 *201:6 *1392:A 5.07058e-05
16 *201:6 *1483:A 0.000361271
17 *201:23 *1483:A 4.35452e-05
18 *201:33 *1400:D 0.00010096
19 *201:49 *1400:C 0.00010048
20 *201:49 *225:14 0.000122012
21 *201:71 *1409:B 5.49544e-05
22 *201:71 *1409:D 0.00042994
23 *201:71 *230:41 2.23592e-05
24 *201:84 *1409:B 5.49489e-05
25 *201:84 *1503:A1 0.000259235
26 *201:84 *212:22 0.00048464
27 *201:84 *230:41 5.94744e-05
28 *201:84 *230:54 0.00080723
29 *1406:C *201:27 0.000219741
30 *1408:B2 *201:49 0.00108017
31 *1417:A_N *201:33 0.00014576
32 *1419:C *201:71 2.75856e-05
33 *1455:B1 *201:49 0.00137905
34 *1457:B1 *201:71 0.000115482
35 *1471:C1 *1448:B 0.000488898
36 *1497:B *201:27 0.000338788
37 *1498:B *201:23 0.000190451
38 *1498:B *201:27 0.000382581
39 *1517:A *1448:B 9.77074e-05
40 *1517:B *1448:B 0.000151061
41 *1526:A1 *201:49 0.000456075
42 *1531:B *201:49 9.83442e-05
43 *31:14 *201:71 9.18544e-05
44 *49:28 *201:84 0.00195252
45 *63:18 *201:49 9.8856e-05
46 *91:22 *201:27 0.00143274
47 *91:22 *201:33 0.000121539
48 *102:12 *201:84 0
49 *104:22 *201:23 0.000227168
50 *104:22 *201:27 0.00061719
51 *104:22 *201:33 0.000284006
52 *120:10 *201:33 1.00375e-05
53 *133:12 *201:23 0.000139907
54 *133:44 *201:49 9.57761e-06
55 *133:58 *201:49 0.000321935
56 *133:117 *201:71 0.000891664
57 *144:10 *201:33 0.000967203
58 *144:58 *201:27 0.0010444
59 *144:58 *201:33 0.00142164
60 *155:20 *1448:B 0.000176294
61 *161:10 *201:23 0.000483713
62 *161:10 *201:27 0.000561072
63 *163:12 *201:71 0.000626792
64 *170:24 *201:33 0.00169893
65 *181:115 *201:49 0.000932936
66 *196:114 *201:84 0
*RES
1 *1563:X *201:6 20.5143 
2 *201:6 *1389:A 10.0321 
3 *201:6 *201:23 14.5536 
4 *201:23 *201:27 36.1339 
5 *201:27 *201:33 36.3304 
6 *201:33 *201:49 46.6786 
7 *201:49 *1408:A2 9.3 
8 *201:33 *1400:B 9.3 
9 *201:23 *201:71 27.5 
10 *201:71 *1409:C 9.3 
11 *201:71 *201:84 44.3929 
12 *201:84 *1448:B 23.55 
*END

*D_NET *202 0.0204665
*CONN
*I *1450:A1 I *D sky130_fd_sc_hd__o31a_2
*I *1454:A I *D sky130_fd_sc_hd__and3_4
*I *1397:B I *D sky130_fd_sc_hd__nand2_2
*I *1392:A I *D sky130_fd_sc_hd__buf_4
*I *1564:X O *D sky130_fd_sc_hd__clkbuf_2
*CAP
1 *1450:A1 0.000367696
2 *1454:A 0.000125232
3 *1397:B 0
4 *1392:A 0.00033505
5 *1564:X 0.000444073
6 *202:48 0.00169488
7 *202:35 0.00256054
8 *202:31 0.00176853
9 *202:6 0.00118906
10 *1392:A *1483:A 9.83388e-05
11 *1450:A1 *1399:A2 0.000693728
12 *1450:A1 *1450:A2 5.33005e-05
13 *1450:A1 *1450:B1 5.33005e-05
14 *1450:A1 *1512:A2 6.27272e-06
15 *202:48 *1399:A2 0.000130061
16 *1421:A *202:35 0.000129913
17 *1478:B *202:48 0.000878315
18 *1548:A3 *202:48 0.00109962
19 *1548:B1 *202:35 0.000295347
20 *1548:B1 *202:48 0.000296399
21 *1548:C1 *202:48 0
22 *1554:A_N *202:31 0
23 *84:26 *1450:A1 1.78098e-05
24 *116:20 *202:48 7.68283e-05
25 *121:10 *1392:A 0.000143457
26 *136:12 *1392:A 0.000227014
27 *141:10 *202:35 4.96113e-05
28 *142:170 *1450:A1 0
29 *142:170 *202:48 0.000937979
30 *143:52 *202:35 0.00403448
31 *143:52 *202:48 0.000447925
32 *148:14 *202:35 0.000563969
33 *148:20 *202:31 1.21289e-05
34 *148:20 *202:35 0.000794011
35 *159:12 *202:31 0.000121573
36 *160:16 *1392:A 0
37 *162:14 *202:31 9.58126e-05
38 *163:12 *202:31 0.000154124
39 *164:6 *202:31 0.000136958
40 *164:23 *202:35 0.000104046
41 *170:31 *202:48 0
42 *181:38 *202:48 9.41642e-05
43 *198:12 *1454:A 0.000184297
44 *201:6 *1392:A 5.07058e-05
*RES
1 *1564:X *202:6 15.175 
2 *202:6 *1392:A 26.9607 
3 *202:6 *202:31 16.6607 
4 *202:31 *202:35 42.0357 
5 *202:35 *1397:B 9.3 
6 *202:35 *202:48 38.0179 
7 *202:48 *1454:A 15.5679 
8 *202:48 *1450:A1 23.2643 
*END

*D_NET *203 0.0235438
*CONN
*I *1405:A I *D sky130_fd_sc_hd__buf_4
*I *1450:A2 I *D sky130_fd_sc_hd__o31a_2
*I *1388:B I *D sky130_fd_sc_hd__nand2_2
*I *1565:X O *D sky130_fd_sc_hd__clkbuf_2
*CAP
1 *1405:A 0.000388917
2 *1450:A2 0.000396599
3 *1388:B 0.00114947
4 *1565:X 9.80154e-05
5 *203:37 0.00415856
6 *203:33 0.00376196
7 *203:31 0.00229341
8 *203:8 0.00315198
9 *1388:B *205:12 0.000472754
10 *1388:B *206:87 0.000300714
11 *1388:B *207:10 9.83442e-05
12 *1450:A2 *1450:B1 0.000166728
13 *203:31 *206:87 0.000524979
14 *203:31 *210:6 0.000374469
15 *1424:C *203:31 0.000151984
16 *1428:A *1450:A2 0.000497366
17 *1450:A1 *1450:A2 5.33005e-05
18 *1450:A3 *1450:A2 0.00117178
19 *1492:A2 *1450:A2 0.000151357
20 *1563:A *203:31 0
21 *1564:A *203:31 0
22 *1565:A *1388:B 0.000112968
23 *1565:A *203:31 8.32242e-05
24 *1567:A *1388:B 0
25 *1568:A *1388:B 0
26 *1572:A *203:31 5.49544e-05
27 *39:28 *1388:B 8.40012e-05
28 *39:28 *203:31 6.20192e-05
29 *93:20 *1388:B 0.000574812
30 *93:20 *203:31 0.00079228
31 *131:125 *203:31 0
32 *138:14 *203:37 0.000175892
33 *138:35 *203:37 0.0018092
34 *168:8 *203:37 0.000144094
35 *172:6 *1450:A2 2.59355e-05
36 *172:16 *203:37 0.00017146
37 *194:16 *1450:A2 9.03136e-05
*RES
1 *1565:X *203:8 14.7464 
2 *203:8 *1388:B 40.0143 
3 *203:8 *203:31 48.6964 
4 *203:31 *203:33 4.5 
5 *203:33 *203:37 47.2679 
6 *203:37 *1450:A2 24.6393 
7 *203:31 *1405:A 20.6036 
*END

*D_NET *204 0.0386099
*CONN
*I *1472:A1 I *D sky130_fd_sc_hd__a21o_1
*I *1482:A2 I *D sky130_fd_sc_hd__o31a_4
*I *1553:A I *D sky130_fd_sc_hd__nor2_2
*I *1558:A1 I *D sky130_fd_sc_hd__a21oi_1
*I *1451:A I *D sky130_fd_sc_hd__xnor2_2
*I *1555:A1 I *D sky130_fd_sc_hd__a31o_1
*I *1566:X O *D sky130_fd_sc_hd__clkbuf_4
*CAP
1 *1472:A1 0.000303707
2 *1482:A2 0
3 *1553:A 0.00113931
4 *1558:A1 0.000794645
5 *1451:A 0
6 *1555:A1 0
7 *1566:X 0.000485129
8 *204:46 0.00273632
9 *204:38 0.00148139
10 *204:34 0.00172398
11 *204:27 0.00193397
12 *204:16 0.0010149
13 *204:8 0.00269274
14 *1472:A1 *1443:B 8.97687e-05
15 *1472:A1 *1472:A2 1.02504e-05
16 *1553:A *1387:A 8.64197e-05
17 *1553:A *1473:A 2.66172e-05
18 *1553:A *213:26 0
19 *1558:A1 *1387:A 0.000139598
20 *1558:A1 *226:27 2.23559e-05
21 *1558:A1 *226:48 2.12087e-05
22 *204:16 *1557:A1 0.000340326
23 *204:16 *229:20 0.000628643
24 *204:34 *1443:B 0.00193111
25 *204:34 *210:28 0.000472368
26 *204:38 *205:42 0.00174733
27 *204:46 *218:18 6.83069e-05
28 *1407:A1 *204:46 0.000124177
29 *1413:A1 *204:8 0.000100524
30 *1413:A2 *204:8 3.06878e-06
31 *1415:B *204:8 0.000185118
32 *1419:C *204:27 0.000251888
33 *1419:C *204:34 9.99853e-05
34 *1426:B *204:46 3.25078e-05
35 *1435:A *204:38 5.90443e-06
36 *1435:A *204:46 0.000100322
37 *1442:B *204:38 0.000309049
38 *1451:B *204:34 0.00235873
39 *1501:B *1553:A 2.19684e-05
40 *1502:C1 *204:38 0.0017375
41 *1505:B1 *204:46 2.24106e-05
42 *1519:A1 *204:8 5.33005e-05
43 *1540:A2 *1553:A 0.000100281
44 *1540:B1 *204:38 2.84398e-05
45 *1540:B1 *204:46 0.000854402
46 *1552:B *1553:A 0.00082642
47 *1555:B1 *204:16 6.00039e-05
48 *1558:B1 *1558:A1 3.02836e-05
49 *1559:B1 *1558:A1 0.000425339
50 *46:10 *1472:A1 0.000506629
51 *49:12 *1472:A1 0.000112747
52 *49:71 *1553:A 0
53 *49:71 *204:46 0.000460213
54 *53:74 *1558:A1 9.14524e-05
55 *53:78 *1553:A 0.000120755
56 *60:26 *204:46 0.000115084
57 *68:16 *204:34 1.64621e-05
58 *72:29 *1553:A 0.000309624
59 *121:10 *204:16 0.00303036
60 *121:10 *204:27 0.000313706
61 *131:74 *204:27 0.00134564
62 *137:16 *1558:A1 0.000479713
63 *137:28 *1558:A1 0.000137561
64 *148:24 *204:16 0.0001007
65 *148:24 *204:27 0.000306214
66 *148:30 *204:16 0.00112247
67 *149:67 *1472:A1 0.000158013
68 *149:73 *1472:A1 6.84956e-05
69 *149:73 *204:38 5.58331e-05
70 *157:12 *204:8 5.49544e-05
71 *166:16 *204:38 4.07184e-05
72 *177:24 *204:46 0.000179647
73 *181:38 *1472:A1 3.51442e-05
74 *181:87 *204:16 0.000145837
75 *181:107 *204:16 0.000849467
76 *194:24 *1472:A1 0.000200178
77 *194:24 *204:34 0.000413859
78 *195:12 *204:27 0.000155641
79 *195:12 *204:34 6.07106e-05
*RES
1 *1566:X *204:8 20.0857 
2 *204:8 *204:16 45.1607 
3 *204:16 *1555:A1 9.3 
4 *204:8 *204:27 29.2321 
5 *204:27 *1451:A 9.3 
6 *204:27 *204:34 28.4643 
7 *204:34 *204:38 31.3393 
8 *204:38 *204:46 26.5357 
9 *204:46 *1558:A1 24.9429 
10 *204:46 *1553:A 43.175 
11 *204:38 *1482:A2 13.8 
12 *204:34 *1472:A1 27.7821 
*END

*D_NET *205 0.0301253
*CONN
*I *1446:A1 I *D sky130_fd_sc_hd__o22a_1
*I *1473:A I *D sky130_fd_sc_hd__xnor2_2
*I *1445:A1 I *D sky130_fd_sc_hd__a21oi_1
*I *1482:A1 I *D sky130_fd_sc_hd__o31a_4
*I *1447:A1 I *D sky130_fd_sc_hd__a311o_1
*I *1567:X O *D sky130_fd_sc_hd__buf_2
*CAP
1 *1446:A1 0.00131444
2 *1473:A 0.000199221
3 *1445:A1 0
4 *1482:A1 7.87899e-05
5 *1447:A1 1.95116e-05
6 *1567:X 0.000687057
7 *205:53 0.00239401
8 *205:42 0.00185429
9 *205:34 0.00280711
10 *205:21 0.00266833
11 *205:12 0.00322364
12 *1446:A1 *227:81 0.000104171
13 *205:12 *1447:A2 1.83136e-05
14 *205:12 *206:16 0.000632174
15 *205:12 *206:87 0.000457714
16 *205:21 *1447:A2 2.18902e-05
17 *205:42 *1445:A2 6.05161e-06
18 *1388:B *205:12 0.000472754
19 *1403:B *205:53 7.06059e-05
20 *1435:A *1482:A1 0.000189195
21 *1446:B2 *1446:A1 0.00010011
22 *1447:B1 *1447:A1 5.46383e-06
23 *1447:B1 *205:21 2.12733e-05
24 *1447:C1 *205:21 0.00101827
25 *1461:A_N *1446:A1 4.82348e-05
26 *1502:C1 *1482:A1 0.000189195
27 *1505:A1 *1446:A1 0.000544258
28 *1540:A2 *1473:A 4.91487e-05
29 *1540:A3 *1473:A 9.52066e-05
30 *1540:A3 *205:53 0.000240508
31 *1553:A *1473:A 2.66172e-05
32 *1569:A *205:12 0.000187613
33 *46:10 *205:53 0
34 *49:55 *205:53 2.06112e-05
35 *49:63 *205:53 0.000141039
36 *60:26 *205:42 0.000111243
37 *72:29 *1473:A 0.000411389
38 *72:29 *205:53 0.00127552
39 *77:20 *1446:A1 4.38936e-05
40 *78:22 *1446:A1 8.03262e-05
41 *93:20 *205:12 0.000250931
42 *130:67 *1446:A1 0
43 *135:32 *205:21 0.00011186
44 *140:24 *1446:A1 4.60497e-05
45 *144:28 *1446:A1 2.84109e-05
46 *149:73 *205:42 0.00151039
47 *156:14 *205:21 0.00242846
48 *156:14 *205:34 0.000124296
49 *156:14 *205:53 0.000332954
50 *166:16 *205:42 0.000120807
51 *183:22 *205:42 0.000431278
52 *183:22 *205:53 8.26761e-05
53 *189:8 *205:42 5.25013e-05
54 *191:8 *205:12 0.000140718
55 *192:28 *205:53 0.000376687
56 *193:56 *205:21 0.000498937
57 *196:68 *205:53 1.18451e-05
58 *204:38 *205:42 0.00174733
*RES
1 *1567:X *205:12 38.7821 
2 *205:12 *1447:A1 9.72857 
3 *205:12 *205:21 48.5893 
4 *205:21 *1482:A1 20.8536 
5 *205:21 *205:34 1.35714 
6 *205:34 *205:42 46.5 
7 *205:42 *1445:A1 9.3 
8 *205:34 *205:53 27.3125 
9 *205:53 *1473:A 19.2375 
10 *205:53 *1446:A1 26.8029 
*END

*D_NET *206 0.0339863
*CONN
*I *1483:A I *D sky130_fd_sc_hd__xnor2_2
*I *1500:A I *D sky130_fd_sc_hd__nand2_1
*I *1499:A I *D sky130_fd_sc_hd__nor2_1
*I *1507:A1 I *D sky130_fd_sc_hd__o21a_1
*I *1568:X O *D sky130_fd_sc_hd__buf_2
*CAP
1 *1483:A 0.0013305
2 *1500:A 0
3 *1499:A 0.000753753
4 *1507:A1 0
5 *1568:X 5.54804e-05
6 *206:87 0.00211497
7 *206:66 0.00267228
8 *206:58 0.00311841
9 *206:35 0.00227451
10 *206:16 0.00159429
11 *206:8 0.00135961
12 *1483:A *209:85 0.000577326
13 *1499:A *1499:B 6.20656e-05
14 *206:58 *222:10 0.000597493
15 *206:58 *222:37 0.000472291
16 *206:58 *227:45 0.000395662
17 *206:66 *227:81 0.000419639
18 *1388:B *206:87 0.000300714
19 *1392:A *1483:A 9.83388e-05
20 *1401:A1 *206:66 0.000262679
21 *1407:B1 *206:66 2.05612e-05
22 *1417:A_N *206:35 0.000180348
23 *1498:B *1483:A 9.90431e-05
24 *1501:C_N *206:66 1.96808e-05
25 *1504:A3 *206:66 0.000175892
26 *1504:B1 *206:58 4.36989e-05
27 *1565:A *206:87 0.000186942
28 *39:20 *206:35 3.71887e-05
29 *39:28 *206:87 0.00191953
30 *53:32 *206:58 0.000166063
31 *56:50 *1483:A 1.83053e-05
32 *56:62 *206:16 0.000991159
33 *56:62 *206:87 0.000397134
34 *71:8 *1483:A 0.000238371
35 *72:8 *1499:A 0.000116761
36 *73:6 *206:66 2.26491e-05
37 *77:20 *206:66 8.01889e-06
38 *93:20 *206:16 0.000255973
39 *93:20 *206:87 0.000490517
40 *111:24 *1499:A 0.000268317
41 *111:24 *206:35 0.000166892
42 *120:10 *1499:A 0.00149717
43 *120:10 *206:35 0.000175526
44 *120:33 *206:35 0.00064374
45 *122:20 *206:58 7.49739e-05
46 *130:87 *206:66 0.000431186
47 *130:89 *206:66 2.2351e-05
48 *133:12 *1483:A 0.000148293
49 *140:24 *206:66 0.000550509
50 *145:10 *206:66 0.000896095
51 *145:22 *206:66 0.000212042
52 *157:12 *206:87 0.00033296
53 *163:16 *1499:A 0.000781766
54 *163:16 *206:35 0.000438046
55 *181:107 *206:35 0
56 *183:180 *206:66 0.000580641
57 *184:16 *206:66 0.00035132
58 *190:24 *206:66 0.000387003
59 *200:18 *206:16 0.000102631
60 *200:18 *206:35 5.72987e-05
61 *201:6 *1483:A 0.000361271
62 *201:23 *1483:A 4.35452e-05
63 *203:31 *206:87 0.000524979
64 *205:12 *206:16 0.000632174
65 *205:12 *206:87 0.000457714
*RES
1 *1568:X *206:8 14.3357 
2 *206:8 *206:16 20.5 
3 *206:16 *1507:A1 9.3 
4 *206:16 *206:35 33.9464 
5 *206:35 *1499:A 37.7107 
6 *206:35 *206:58 26.1429 
7 *206:58 *206:66 48.125 
8 *206:66 *1500:A 9.3 
9 *206:8 *206:87 46.3214 
10 *206:87 *1483:A 36.1393 
*END

*D_NET *207 0.0235616
*CONN
*I *1512:A1 I *D sky130_fd_sc_hd__o21a_1
*I *1506:A I *D sky130_fd_sc_hd__xnor2_4
*I *1513:A1 I *D sky130_fd_sc_hd__a31oi_2
*I *1569:X O *D sky130_fd_sc_hd__clkbuf_4
*CAP
1 *1512:A1 0
2 *1506:A 0.000543669
3 *1513:A1 3.61152e-05
4 *1569:X 0.000924071
5 *207:42 0.00302092
6 *207:25 0.00506185
7 *207:23 0.00263648
8 *207:10 0.0020994
9 *1506:A *1506:B 0.000733971
10 *1506:A *1512:A2 0.000154186
11 *207:10 *219:22 0.000169715
12 *207:23 *219:22 1.41193e-05
13 *207:23 *229:47 0.000491786
14 *207:25 *208:44 0.000144557
15 *207:42 *208:44 0.000277823
16 *207:42 *208:59 0.000189378
17 *1388:B *207:10 9.83442e-05
18 *1394:B *1506:A 0
19 *1441:B *207:42 0.000125081
20 *1512:B1 *207:42 0.00136842
21 *1554:A_N *207:23 0.00127598
22 *56:56 *1513:A1 4.58194e-05
23 *82:24 *207:23 3.48601e-05
24 *109:18 *207:23 0.000256574
25 *109:20 *207:10 0.000368729
26 *109:20 *207:23 2.57258e-05
27 *121:10 *207:23 0.000298479
28 *132:12 *207:10 9.67754e-05
29 *136:16 *207:23 0.000694783
30 *136:28 *207:10 0.00071534
31 *136:28 *207:23 0.00112986
32 *138:10 *1506:A 0
33 *162:27 *207:23 0.000434614
34 *181:70 *1513:A1 9.41642e-05
*RES
1 *1569:X *207:10 30.55 
2 *207:10 *1513:A1 14.7464 
3 *207:10 *207:23 41.6607 
4 *207:23 *207:25 17.375 
5 *207:25 *1506:A 29.9607 
6 *207:25 *207:42 44.5179 
7 *207:42 *1512:A1 9.3 
*END

*D_NET *208 0.0275166
*CONN
*I *1385:A I *D sky130_fd_sc_hd__or2_2
*I *1443:A I *D sky130_fd_sc_hd__or3b_1
*I *1441:A I *D sky130_fd_sc_hd__nand2_2
*I *1449:A_N I *D sky130_fd_sc_hd__nand3b_4
*I *1436:A I *D sky130_fd_sc_hd__nand2_2
*I *1570:X O *D sky130_fd_sc_hd__buf_2
*CAP
1 *1385:A 1.21645e-05
2 *1443:A 0
3 *1441:A 0
4 *1449:A_N 0
5 *1436:A 0.000535976
6 *1570:X 0.00145541
7 *208:71 0.00163453
8 *208:59 0.00228403
9 *208:44 0.00184821
10 *208:14 0.00147894
11 *208:10 0.00360924
12 *1385:A *209:85 5.49544e-05
13 *1436:A *1449:C 0.00017754
14 *1436:A *209:16 0.000264327
15 *1436:A *209:28 0.000185394
16 *1436:A *210:32 0
17 *208:10 *225:103 0
18 *208:14 *209:16 0.000824066
19 *1394:A *208:10 0.000545369
20 *1394:B *208:10 0
21 *1441:B *208:44 0.000388036
22 *1462:B *208:71 9.25014e-06
23 *1523:A2 *208:10 0.00158292
24 *37:31 *208:59 0
25 *49:28 *208:59 0.000100088
26 *55:31 *1436:A 0.000499748
27 *61:26 *1385:A 5.49544e-05
28 *82:24 *208:14 0.000217105
29 *89:8 *208:10 0.000579061
30 *93:20 *208:10 1.61807e-05
31 *97:16 *1436:A 0.000228514
32 *131:125 *208:10 5.20751e-05
33 *133:146 *208:10 0
34 *134:29 *208:71 0.00153874
35 *135:36 *1436:A 2.23592e-05
36 *136:61 *208:14 0.000128154
37 *136:150 *208:10 0.000243071
38 *136:150 *208:14 0.000836921
39 *138:10 *208:10 2.00751e-05
40 *138:16 *208:10 0.000444338
41 *138:16 *208:14 0.00259073
42 *143:10 *208:71 0.000501274
43 *143:26 *208:71 0.000117019
44 *147:25 *1436:A 0.000642212
45 *156:39 *1436:A 4.92678e-05
46 *192:20 *208:71 6.38303e-05
47 *194:16 *208:71 0.00024203
48 *197:10 *208:71 0.000826754
49 *207:25 *208:44 0.000144557
50 *207:42 *208:44 0.000277823
51 *207:42 *208:59 0.000189378
*RES
1 *1570:X *208:10 49.6571 
2 *208:10 *208:14 38.3214 
3 *208:14 *1436:A 34.1214 
4 *208:14 *1449:A_N 9.3 
5 *208:10 *208:44 25.1786 
6 *208:44 *1441:A 9.3 
7 *208:44 *208:59 15.9107 
8 *208:59 *208:71 45.3571 
9 *208:71 *1443:A 9.3 
10 *208:59 *1385:A 14.3357 
*END

*D_NET *209 0.034693
*CONN
*I *1442:A I *D sky130_fd_sc_hd__nor2_4
*I *1443:C_N I *D sky130_fd_sc_hd__or3b_1
*I *1385:B I *D sky130_fd_sc_hd__or2_2
*I *1449:B I *D sky130_fd_sc_hd__nand3b_4
*I *1436:B I *D sky130_fd_sc_hd__nand2_2
*I *1502:A1 I *D sky130_fd_sc_hd__a211o_1
*I *1571:X O *D sky130_fd_sc_hd__clkbuf_4
*CAP
1 *1442:A 0
2 *1443:C_N 0.000381957
3 *1385:B 1.39296e-05
4 *1449:B 0
5 *1436:B 0
6 *1502:A1 0.0021432
7 *1571:X 0.00246712
8 *209:106 0.0011068
9 *209:85 0.00288493
10 *209:50 0.00270894
11 *209:28 0.000999082
12 *209:16 0.00141779
13 *209:10 0.00559773
14 *209:16 *225:78 7.79781e-06
15 *209:50 *210:32 8.42311e-05
16 *209:50 *210:52 0
17 *209:85 *215:16 0.000594481
18 *209:106 *230:54 7.02611e-05
19 *1385:A *209:85 5.49544e-05
20 *1394:A *209:10 0.000310613
21 *1422:A_N *209:50 0.000124012
22 *1431:B1 *1443:C_N 0.00017599
23 *1431:B1 *209:106 0.000519185
24 *1436:A *209:16 0.000264327
25 *1436:A *209:28 0.000185394
26 *1442:B *1443:C_N 0.000159224
27 *1483:A *209:85 0.000577326
28 *1502:C1 *1502:A1 1.98839e-05
29 *1516:A2 *209:16 0.000234866
30 *1517:A *209:106 0.000202528
31 *1591:A *209:16 3.56025e-05
32 *33:16 *209:50 0.000216755
33 *55:14 *1502:A1 0.00164444
34 *55:31 *209:50 0
35 *56:50 *209:28 0.000119738
36 *60:26 *209:106 0.000188425
37 *61:26 *209:85 6.24774e-05
38 *61:26 *209:106 0.000561154
39 *69:14 *209:50 0.00035593
40 *71:10 *209:16 0
41 *71:10 *209:28 0.000402427
42 *72:29 *1502:A1 3.37082e-05
43 *75:12 *1502:A1 5.74499e-06
44 *94:10 *209:50 0.00018067
45 *95:14 *209:50 0.00011608
46 *97:16 *209:28 0.000132248
47 *97:20 *209:28 5.71124e-05
48 *108:18 *1502:A1 0.000751161
49 *109:10 *209:16 0.000756988
50 *111:24 *209:10 0
51 *112:10 *209:50 9.8126e-05
52 *129:8 *209:85 0.000560803
53 *135:36 *209:28 0.000440836
54 *135:51 *1443:C_N 0.000102571
55 *136:61 *209:16 0.000126439
56 *136:92 *1443:C_N 0.000262076
57 *136:150 *209:10 0.00090628
58 *136:150 *209:16 0.00017309
59 *137:112 *209:85 0.00026139
60 *137:131 *209:85 9.15842e-06
61 *138:10 *209:10 9.91086e-05
62 *148:40 *209:50 0.000218404
63 *156:39 *209:16 8.4098e-05
64 *156:39 *209:50 0.000242599
65 *169:22 *209:106 0.000494276
66 *173:37 *1443:C_N 1.94945e-05
67 *179:40 *209:28 0
68 *185:10 *209:85 0.000129558
69 *186:18 *209:106 0.000139632
70 *193:8 *209:16 1.76135e-05
71 *197:35 *1443:C_N 0.00055613
72 *208:14 *209:16 0.000824066
*RES
1 *1571:X *209:10 49.9607 
2 *209:10 *209:16 32.1071 
3 *209:16 *209:28 21 
4 *209:28 *209:50 40.4286 
5 *209:50 *1502:A1 36.8536 
6 *209:28 *1436:B 9.3 
7 *209:16 *1449:B 9.3 
8 *209:10 *209:85 44.0536 
9 *209:85 *1385:B 9.72857 
10 *209:85 *209:106 28.4464 
11 *209:106 *1443:C_N 28.7464 
12 *209:106 *1442:A 9.3 
*END

*D_NET *210 0.0337595
*CONN
*I *1438:A I *D sky130_fd_sc_hd__or2_1
*I *1479:A I *D sky130_fd_sc_hd__and3_2
*I *1443:B I *D sky130_fd_sc_hd__or3b_1
*I *1449:C I *D sky130_fd_sc_hd__nand3b_4
*I *1437:A I *D sky130_fd_sc_hd__nor2_4
*I *1384:A I *D sky130_fd_sc_hd__inv_2
*I *1572:X O *D sky130_fd_sc_hd__clkbuf_4
*CAP
1 *1438:A 0.000551558
2 *1479:A 0.00010771
3 *1443:B 0.00192597
4 *1449:C 0.000118043
5 *1437:A 9.65419e-05
6 *1384:A 0.000812298
7 *1572:X 0.00197545
8 *210:52 0.0024369
9 *210:32 0.00217052
10 *210:28 0.00121425
11 *210:22 0.00315357
12 *210:10 0.00100232
13 *210:6 0.00284086
14 *210:28 *223:10 0.000508561
15 *210:52 *222:37 0.00117902
16 *1395:A1 *210:6 0.000312222
17 *1395:A2 *210:6 9.31011e-05
18 *1404:A *210:22 0.000286236
19 *1436:A *1449:C 0.00017754
20 *1436:A *210:32 0
21 *1459:B *1437:A 0.000216755
22 *1459:B *210:52 0.000267738
23 *1462:B *1443:B 1.02504e-05
24 *1472:A1 *1443:B 8.97687e-05
25 *1479:C *1479:A 8.26339e-05
26 *1481:A2 *1384:A 0
27 *1481:C1 *1384:A 0.000320837
28 *1511:A1 *210:10 0.000342845
29 *1511:A1 *210:22 0.000103649
30 *1518:B1 *1438:A 5.33005e-05
31 *1531:B *1384:A 4.85291e-05
32 *1533:B *210:10 0.000505399
33 *31:14 *210:28 0
34 *32:39 *210:22 0.00100287
35 *32:52 *210:10 0.000168503
36 *32:52 *210:22 0.000391391
37 *37:31 *1438:A 0.000135028
38 *41:44 *210:10 0
39 *53:8 *210:22 9.41642e-05
40 *55:31 *210:28 0
41 *55:31 *210:32 0
42 *55:31 *210:52 0.000611102
43 *61:18 *1438:A 0.000414942
44 *66:34 *210:22 0.00013713
45 *67:24 *1438:A 0.000101989
46 *72:8 *1384:A 0.000474074
47 *94:10 *1437:A 0.000104528
48 *94:10 *210:52 0.000142963
49 *95:14 *210:32 0.000488319
50 *97:20 *1384:A 0
51 *97:20 *210:52 0
52 *102:12 *1438:A 3.97677e-05
53 *117:16 *210:22 0.000725989
54 *124:12 *210:52 0.000222349
55 *129:36 *1438:A 0.000181634
56 *130:87 *210:52 0.000353829
57 *133:38 *210:52 0
58 *134:33 *1479:A 0.000302748
59 *137:63 *1443:B 3.42184e-05
60 *139:8 *210:6 5.33005e-05
61 *143:26 *1443:B 0
62 *147:25 *1449:C 0.000134349
63 *156:39 *1449:C 0.000108277
64 *179:10 *210:28 0
65 *179:40 *1449:C 0.000136958
66 *180:23 *1479:A 0.000136733
67 *180:23 *210:28 0.000102199
68 *180:23 *210:32 0.000110125
69 *181:18 *1443:B 0.000195844
70 *181:131 *1384:A 0.000542568
71 *194:24 *1443:B 2.82509e-05
72 *195:12 *210:28 0.000216755
73 *196:18 *210:52 0
74 *203:31 *210:6 0.000374469
75 *204:34 *1443:B 0.00193111
76 *204:34 *210:28 0.000472368
77 *209:50 *210:32 8.42311e-05
78 *209:50 *210:52 0
*RES
1 *1572:X *210:6 41.05 
2 *210:6 *210:10 13.4286 
3 *210:10 *210:22 32.6071 
4 *210:22 *210:28 18.6786 
5 *210:28 *210:32 14.0357 
6 *210:32 *210:52 41.4107 
7 *210:52 *1384:A 32.2821 
8 *210:32 *1437:A 11.9071 
9 *210:28 *1449:C 18.0321 
10 *210:22 *1443:B 48.2286 
11 *210:10 *1479:A 16.8 
12 *210:6 *1438:A 29.7286 
*END

*D_NET *211 0.0290647
*CONN
*I *1409:B I *D sky130_fd_sc_hd__and4_1
*I *1397:A I *D sky130_fd_sc_hd__nand2_2
*I *1387:A I *D sky130_fd_sc_hd__buf_4
*I *1408:A1 I *D sky130_fd_sc_hd__a22o_1
*I *1573:X O *D sky130_fd_sc_hd__clkbuf_2
*CAP
1 *1409:B 0.000117181
2 *1397:A 0.00142532
3 *1387:A 0.000789862
4 *1408:A1 8.19453e-05
5 *1573:X 0.00144633
6 *211:56 0.00282296
7 *211:24 0.00284146
8 *211:8 0.00469645
9 *1397:A *230:41 0.000160957
10 *1397:A *230:54 8.45688e-05
11 *211:24 *1514:A1 3.24808e-05
12 *211:24 *212:22 4.65519e-05
13 *1404:A *1409:B 9.22948e-05
14 *1404:A *211:56 0.000317686
15 *1422:B *211:24 6.97592e-05
16 *1458:A1 *211:56 0.000692382
17 *1463:A *1397:A 0.000301881
18 *1514:B1 *1387:A 0.00013519
19 *1521:A2 *211:24 0.00018372
20 *1521:B1 *211:24 0.000263634
21 *1553:A *1387:A 8.64197e-05
22 *1558:A1 *1387:A 0.000139598
23 *30:10 *211:56 0.000473393
24 *32:20 *211:24 0.000252305
25 *32:20 *211:56 0.0006423
26 *33:49 *1409:B 4.78056e-05
27 *33:49 *211:56 1.08359e-05
28 *36:16 *1397:A 0.000620179
29 *44:22 *1397:A 0.000145753
30 *47:20 *1387:A 0.000137639
31 *47:39 *1387:A 0.000211238
32 *53:74 *1387:A 0.000643564
33 *53:74 *211:24 0.000685665
34 *55:14 *211:56 7.29712e-05
35 *63:10 *211:24 6.2589e-06
36 *67:24 *211:24 0.000193434
37 *68:8 *211:24 0.00035468
38 *88:24 *211:24 0.000233734
39 *117:16 *211:56 0.00181303
40 *118:14 *1387:A 0.000131724
41 *118:14 *1408:A1 0.000230124
42 *130:51 *1397:A 9.25014e-06
43 *135:32 *1387:A 0.000123762
44 *135:32 *1408:A1 0.00018348
45 *142:123 *211:24 1.90936e-05
46 *152:16 *1408:A1 2.26424e-05
47 *153:8 *1397:A 5.33005e-05
48 *153:12 *211:56 0.000896332
49 *169:10 *211:56 1.1594e-05
50 *169:22 *1397:A 6.73217e-05
51 *169:22 *211:56 0.000148926
52 *170:18 *211:8 0.00220229
53 *173:10 *211:24 0
54 *176:28 *211:24 7.05989e-05
55 *184:16 *211:24 4.15618e-05
56 *188:81 *211:8 0.000636305
57 *195:20 *211:24 8.10148e-05
58 *195:20 *211:56 0.000168067
59 *200:24 *211:8 0.000363821
60 *200:55 *211:56 0.000120151
61 *201:71 *1409:B 5.49544e-05
62 *201:84 *1409:B 5.49489e-05
*RES
1 *1573:X *211:8 48.0143 
2 *211:8 *211:24 41.6074 
3 *211:24 *1408:A1 16.8089 
4 *211:24 *1387:A 30.9339 
5 *211:8 *211:56 42.125 
6 *211:56 *1397:A 42.675 
7 *211:56 *1409:B 16.0857 
*END

*D_NET *212 0.0264881
*CONN
*I *1581:A I *D sky130_fd_sc_hd__buf_2
*I *1521:X O *D sky130_fd_sc_hd__a31o_1
*CAP
1 *1581:A 0.000153021
2 *1521:X 0.00696085
3 *212:22 0.00711387
4 *212:22 *1503:A1 0.00012384
5 out[0] *1581:A 1.21955e-05
6 *1493:A *212:22 0.00114448
7 *1493:B *212:22 0.00192333
8 *49:28 *212:22 0.000335766
9 *65:12 *1581:A 0
10 *74:28 *212:22 0.00130651
11 *78:22 *212:22 0.00156546
12 *102:12 *212:22 0.000266848
13 *106:24 *212:22 0
14 *113:16 *212:22 0.000446844
15 *114:10 *212:22 0.000541485
16 *119:10 *212:22 0.000294153
17 *126:12 *212:22 0.000295417
18 *149:87 *212:22 0.000135688
19 *155:20 *212:22 0.000485158
20 *158:49 *212:22 2.3704e-05
21 *176:18 *212:22 0.00170372
22 *176:28 *212:22 4.32258e-05
23 *183:53 *212:22 0.000112594
24 *196:114 *212:22 0.000252981
25 *198:32 *212:22 0.000715796
26 *201:84 *212:22 0.00048464
27 *211:24 *212:22 4.65519e-05
*RES
1 *1521:X *212:22 48.9792 
2 *212:22 *1581:A 16.5054 
*END

*D_NET *213 0.0322003
*CONN
*I *1582:A I *D sky130_fd_sc_hd__buf_2
*I *1532:X O *D sky130_fd_sc_hd__dlymetal6s2s_1
*CAP
1 *1582:A 0.000159799
2 *1532:X 0.000122248
3 *213:32 0.00208814
4 *213:30 0.00311899
5 *213:26 0.00266912
6 *213:18 0.00387732
7 *213:10 0.00252109
8 *213:18 *1588:A 0.00122986
9 *213:18 *219:30 4.04415e-05
10 *213:26 *1553:B 0
11 *213:32 *214:10 0.00418751
12 out[1] *213:32 0
13 *1477:A1 *213:26 0
14 *1489:B *213:32 0
15 *1501:B *213:26 5.83233e-05
16 *1536:B1 *213:26 0.000649045
17 *1538:A2 *213:26 0.00019529
18 *1553:A *213:26 0
19 *47:20 *213:26 3.57844e-05
20 *50:29 *213:32 0.000276052
21 *62:12 *213:32 0.000517332
22 *72:29 *213:26 0.000450696
23 *74:28 *213:26 2.28904e-05
24 *80:10 *213:26 0.000216304
25 *87:12 *213:32 0.00260258
26 *133:60 *213:30 0.00137236
27 *133:75 *213:30 0.000139907
28 *133:90 *213:30 0.000229456
29 *133:90 *213:32 0.00250749
30 *168:44 *213:26 5.49544e-05
31 *169:49 *213:10 0.000153695
32 *170:24 *213:10 0.000310117
33 *174:10 *213:18 0.00239354
*RES
1 *1532:X *213:10 22.3714 
2 *213:10 *213:18 45.0714 
3 *213:18 *213:26 34.8214 
4 *213:26 *213:30 21.0536 
5 *213:30 *213:32 79.3571 
6 *213:32 *1582:A 16.3893 
*END

*D_NET *214 0.0130547
*CONN
*I *1583:A I *D sky130_fd_sc_hd__buf_2
*I *1540:X O *D sky130_fd_sc_hd__a31o_1
*CAP
1 *1583:A 0.000140441
2 *1540:X 0.00155707
3 *214:10 0.00129122
4 *214:8 0.00270784
5 *214:8 *227:102 6.5036e-05
6 out[2] *214:10 5.7903e-06
7 *1489:A *214:10 0.00228569
8 *1489:B *214:10 0
9 *50:29 *214:10 0.000814134
10 *213:32 *214:10 0.00418751
*RES
1 *1540:X *214:8 30.7643 
2 *214:8 *214:10 52.9464 
3 *214:10 *1583:A 15.9786 
*END

*D_NET *215 0.0136668
*CONN
*I *1584:A I *D sky130_fd_sc_hd__buf_2
*I *1549:X O *D sky130_fd_sc_hd__a221o_1
*CAP
1 *1584:A 0.000997236
2 *1549:X 0.000974955
3 *215:16 0.00342876
4 *215:12 0.00340648
5 *1584:A *1475:A 0
6 *215:16 *1503:A1 2.89016e-05
7 *1404:A *215:12 0.000283448
8 *1431:A1 *215:16 1.65169e-05
9 *1431:A2 *215:16 0.000185124
10 *1431:B1 *215:16 0.000410606
11 *1515:A2 *1584:A 0.00173932
12 *1549:A1 *215:12 0.000141734
13 *1549:B1 *215:12 0.000484662
14 *1549:C1 *215:12 0.000167026
15 *33:49 *215:12 0.000282059
16 *52:24 *1584:A 0
17 *75:18 *215:16 2.36643e-05
18 *175:20 *215:16 1.98839e-05
19 *181:38 *215:16 1.98839e-05
20 *183:53 *215:16 9.77264e-06
21 *183:70 *215:16 0.000224308
22 *186:65 *215:12 1.12195e-05
23 *194:16 *215:16 0.000216755
24 *209:85 *215:16 0.000594481
*RES
1 *1549:X *215:12 32.8714 
2 *215:12 *215:16 43.2321 
3 *215:16 *1584:A 37.4429 
*END

*D_NET *216 0.00226697
*CONN
*I *1585:A I *D sky130_fd_sc_hd__buf_2
*I *1561:X O *D sky130_fd_sc_hd__clkbuf_1
*CAP
1 *1585:A 0.00055359
2 *1561:X 0.00055359
3 *1439:A *1585:A 0.000340004
4 *1515:B1_N *1585:A 0.000340004
5 *188:69 *1585:A 0.00047978
*RES
1 *1561:X *1585:A 37.85 
*END

*D_NET *217 0.0122113
*CONN
*I *1586:A I *D sky130_fd_sc_hd__buf_2
*I *1481:X O *D sky130_fd_sc_hd__a211o_1
*CAP
1 *1586:A 0
2 *1481:X 0.00356726
3 *217:16 0.00128394
4 *217:6 0.0048512
5 *217:16 *227:102 0.000595284
6 *1481:A2 *217:6 7.617e-05
7 *1486:B *217:16 0.000353922
8 *1522:A1 *217:16 0.000307023
9 *51:12 *217:16 0.00016494
10 *131:8 *217:16 0.000299973
11 *131:48 *217:16 0.000374965
12 *136:108 *217:16 0.000336637
*RES
1 *1481:X *217:6 49.2643 
2 *217:6 *217:16 41.25 
3 *217:16 *1586:A 9.3 
*END

*D_NET *218 0.00535844
*CONN
*I *1587:A I *D sky130_fd_sc_hd__buf_2
*I *1505:X O *D sky130_fd_sc_hd__a21o_1
*CAP
1 *1587:A 2.5244e-05
2 *1505:X 0.00152349
3 *218:18 0.00154874
4 *218:18 *1540:A1 9.67754e-05
5 *1401:B1_N *218:18 1.35553e-05
6 *1540:A2 *218:18 1.05603e-05
7 *1540:B1 *218:18 5.49995e-05
8 *1552:B *218:18 9.32873e-05
9 *46:10 *218:18 9.14477e-05
10 *49:71 *218:18 0
11 *53:78 *218:18 3.26063e-05
12 *133:60 *1587:A 0.000141734
13 *134:109 *218:18 0.00137346
14 *134:150 *218:18 8.27532e-05
15 *135:18 *1587:A 7.8195e-05
16 *188:18 *218:18 0.000123288
17 *204:46 *218:18 6.83069e-05
*RES
1 *1505:X *218:18 47.4964 
2 *218:18 *1587:A 15.1571 
*END

*D_NET *219 0.0318887
*CONN
*I *1588:A I *D sky130_fd_sc_hd__buf_6
*I *1516:X O *D sky130_fd_sc_hd__a31o_4
*CAP
1 *1588:A 0.000826923
2 *1516:X 0.00461237
3 *219:30 0.00185422
4 *219:22 0.00563966
5 *1588:A *1553:B 0.000290875
6 *219:22 *229:20 0.00306366
7 *219:22 *229:47 0.00272356
8 *219:30 *227:23 1.18064e-05
9 out[7] *1588:A 7.20217e-06
10 *1430:C *219:30 0.0013581
11 *1476:A *1588:A 0.000271898
12 *1531:A *219:22 0.00140484
13 *1532:A *219:30 0
14 *49:71 *1588:A 0.000259702
15 *50:10 *1588:A 0.00252286
16 *82:24 *219:30 0.000302511
17 *104:22 *219:22 0
18 *111:24 *219:22 0.000378692
19 *120:6 *1588:A 0.000528165
20 *120:6 *219:30 0.000238501
21 *121:10 *219:22 0.000966492
22 *130:99 *219:30 0.000673041
23 *136:16 *219:22 0.000181799
24 *136:28 *219:22 0.000614402
25 *174:10 *219:30 0.00170325
26 *207:10 *219:22 0.000169715
27 *207:23 *219:22 1.41193e-05
28 *213:18 *1588:A 0.00122986
29 *213:18 *219:30 4.04415e-05
*RES
1 *1516:X *219:22 43.6776 
2 *219:22 *219:30 37.9554 
3 *219:30 *1588:A 45.5857 
*END

*D_NET *220 0.0180565
*CONN
*I *1590:A I *D sky130_fd_sc_hd__dlygate4sd1_1
*I *1542:B I *D sky130_fd_sc_hd__nand2_1
*I *1589:X O *D sky130_fd_sc_hd__dlygate4sd1_1
*CAP
1 *1590:A 2.04425e-05
2 *1542:B 0
3 *1589:X 0.00178898
4 *220:34 0.00196313
5 *220:22 0.00339883
6 *220:16 0.00320424
7 *220:16 *224:8 0.00047563
8 *1434:A *220:34 0.000216077
9 *1434:C *220:34 2.0954e-05
10 *1461:A_N *220:22 9.60337e-06
11 *1461:C *220:22 0
12 *1471:C1 *220:16 9.25014e-06
13 *1476:A *220:34 0.000482882
14 *1525:C *220:16 0.00063208
15 *1538:A1 *220:34 9.03974e-05
16 *35:12 *1590:A 5.33005e-05
17 *35:55 *220:22 0.000212405
18 *35:63 *220:16 0
19 *35:63 *220:22 0
20 *44:22 *220:16 9.91086e-05
21 *48:12 *220:34 9.2539e-06
22 *92:14 *220:34 0.00012864
23 *107:8 *220:34 0.000611595
24 *137:43 *220:22 0.000697269
25 *137:55 *220:16 8.98764e-05
26 *137:55 *220:22 4.26765e-05
27 *141:64 *220:16 0.00011991
28 *144:30 *1590:A 2.59355e-05
29 *152:16 *220:22 0.000709964
30 *152:16 *220:34 0.000619104
31 *158:43 *220:22 8.83765e-05
32 *158:49 *220:34 0.000353079
33 *168:36 *220:34 0
34 *178:8 *220:34 2.52885e-05
35 *181:131 *220:34 5.58162e-05
36 *186:18 *220:16 0.00121065
37 *199:16 *220:34 0.000591782
*RES
1 *1589:X *220:16 49.0589 
2 *220:16 *220:22 28.0804 
3 *220:22 *220:34 48.375 
4 *220:34 *1542:B 9.3 
5 *220:22 *1590:A 14.3357 
*END

*D_NET *221 0.000999975
*CONN
*I *1540:A1 I *D sky130_fd_sc_hd__a31o_1
*I *1590:X O *D sky130_fd_sc_hd__dlygate4sd1_1
*CAP
1 *1540:A1 0.000169155
2 *1590:X 0.000169155
3 *1540:A1 *227:102 0.000474909
4 *1401:B1_N *1540:A1 6.92966e-06
5 *1540:B1 *1540:A1 2.22212e-05
6 *144:30 *1540:A1 6.08303e-05
7 *218:18 *1540:A1 9.67754e-05
*RES
1 *1590:X *1540:A1 23.6714 
*END

*D_NET *222 0.0388365
*CONN
*I *1409:D I *D sky130_fd_sc_hd__and4_1
*I *1399:A2 I *D sky130_fd_sc_hd__a22oi_4
*I *1390:A I *D sky130_fd_sc_hd__buf_4
*I *1400:C I *D sky130_fd_sc_hd__and4_2
*I *1574:X O *D sky130_fd_sc_hd__buf_2
*CAP
1 *1409:D 0.000497331
2 *1399:A2 0.00157113
3 *1390:A 0.000442541
4 *1400:C 0.000635117
5 *1574:X 0.00117942
6 *222:66 0.00177065
7 *222:45 0.00317877
8 *222:39 0.0035854
9 *222:37 0.00189283
10 *222:10 0.003156
11 *1400:C *225:14 0.000281567
12 *1409:D *230:41 0.000407263
13 *222:37 *227:45 5.96516e-05
14 *1399:A1 *1399:A2 1.28239e-05
15 *1447:B1 *1400:C 8.67814e-06
16 *1450:A1 *1399:A2 0.000693728
17 *1478:A *1399:A2 2.16833e-05
18 *1478:B *1399:A2 0.000173797
19 *1481:A2 *222:37 0
20 *1492:A2 *1399:A2 3.97863e-05
21 *1511:A2 *1409:D 0.000187818
22 *1521:B1 *1400:C 9.91484e-05
23 *1539:A2 *222:37 0.000397304
24 *1548:A2 *1399:A2 6.7665e-05
25 *1548:A2 *222:66 0.000310293
26 *1548:A3 *1399:A2 1.41029e-05
27 *47:45 *222:66 0.000397178
28 *49:12 *222:66 4.51148e-05
29 *52:24 *1399:A2 0.000123359
30 *52:24 *222:45 0
31 *65:12 *1399:A2 0.000197991
32 *69:14 *1409:D 0.000100549
33 *76:16 *222:45 0.00045227
34 *95:14 *222:37 0
35 *103:12 *1400:C 0
36 *112:10 *1409:D 0.000906344
37 *112:10 *222:39 0.00164425
38 *122:16 *1400:C 3.75959e-05
39 *124:12 *222:37 0.000151176
40 *128:8 *1400:C 9.74447e-05
41 *130:51 *222:45 0.000511989
42 *134:6 *1390:A 0.00043284
43 *134:12 *1390:A 1.24368e-05
44 *142:94 *1390:A 0.000777289
45 *142:94 *222:66 0.000358194
46 *142:170 *1399:A2 0.000937979
47 *143:26 *222:45 1.47728e-05
48 *164:54 *222:37 0
49 *167:24 *222:45 0.000870925
50 *169:49 *222:39 0.000318255
51 *179:40 *222:37 0
52 *184:16 *222:10 0.000140243
53 *184:16 *222:37 0.000918645
54 *187:28 *1390:A 0.000779718
55 *187:28 *222:66 0.000365222
56 *195:12 *1409:D 0.000291782
57 *195:12 *222:39 0.00164261
58 *198:32 *222:45 0.00271655
59 *201:49 *1400:C 0.00010048
60 *201:71 *1409:D 0.00042994
61 *202:48 *1399:A2 0.000130061
62 *206:58 *222:10 0.000597493
63 *206:58 *222:37 0.000472291
64 *210:52 *222:37 0.00117902
*RES
1 *1574:X *222:10 27.1214 
2 *222:10 *1400:C 32.0857 
3 *222:10 *222:37 43.1607 
4 *222:37 *222:39 21.5268 
5 *222:39 *222:45 13.353 
6 *222:45 *1390:A 28.4518 
7 *222:45 *222:66 17.6518 
8 *222:66 *1399:A2 49.925 
9 *222:39 *1409:D 30.1482 
*END

*D_NET *223 0.00409382
*CONN
*I *1592:A I *D sky130_fd_sc_hd__clkbuf_2
*I *1457:A2 I *D sky130_fd_sc_hd__a21oi_1
*I *1591:X O *D sky130_fd_sc_hd__dlymetal6s2s_1
*CAP
1 *1592:A 9.81739e-05
2 *1457:A2 0
3 *1591:X 0.000554464
4 *223:10 0.000652638
5 *1419:C *1592:A 1.89554e-05
6 *1419:C *223:10 0.000269961
7 *1457:A1 *223:10 0.000147752
8 *1591:A *223:10 0.000136682
9 *40:29 *223:10 0.000138217
10 *55:31 *1592:A 0
11 *117:8 *1592:A 5.33005e-05
12 *128:12 *1592:A 5.33005e-05
13 *155:36 *223:10 0.00020392
14 *180:23 *1592:A 0.000148189
15 *180:23 *223:10 0.00110971
16 *210:28 *223:10 0.000508561
*RES
1 *1591:X *223:10 32.3179 
2 *223:10 *1457:A2 13.8 
3 *223:10 *1592:A 16.2821 
*END

*D_NET *224 0.014339
*CONN
*I *1453:A1 I *D sky130_fd_sc_hd__a21oi_2
*I *1454:B I *D sky130_fd_sc_hd__and3_4
*I *1450:B1 I *D sky130_fd_sc_hd__o31a_2
*I *1472:A2 I *D sky130_fd_sc_hd__a21o_1
*I *1592:X O *D sky130_fd_sc_hd__clkbuf_2
*CAP
1 *1453:A1 0
2 *1454:B 9.49271e-05
3 *1450:B1 0.000608526
4 *1472:A2 5.69443e-05
5 *1592:X 0.00112068
6 *224:31 0.00111911
7 *224:23 0.000656545
8 *224:8 0.00141851
9 *1450:B1 *1512:A2 5.7903e-06
10 *224:31 *1448:A 0.000514576
11 *1386:B *224:8 0.000141131
12 *1441:B *224:8 0.000168064
13 *1450:A1 *1450:B1 5.33005e-05
14 *1450:A2 *1450:B1 0.000166728
15 *1450:A3 *1450:B1 1.59373e-05
16 *1453:B1 *224:23 5.49544e-05
17 *1454:C *1454:B 0.000524672
18 *1454:C *224:31 0.000855794
19 *1470:B *224:8 0.000224072
20 *1472:A1 *1472:A2 1.02504e-05
21 *1492:A2 *1450:B1 1.13883e-05
22 *1517:B *224:31 0.000350929
23 *1548:C1 *1450:B1 2.07809e-05
24 *1549:B2 *224:8 2.36643e-05
25 *1550:A2 *224:8 3.35013e-05
26 *35:71 *224:8 0.000346336
27 *44:8 *224:8 5.33005e-05
28 *61:26 *1454:B 0.00051164
29 *61:26 *224:31 0.000939219
30 *115:12 *224:31 3.97677e-05
31 *117:8 *224:8 0.00035013
32 *128:12 *224:8 0.000309266
33 *142:170 *1450:B1 0.000709682
34 *149:67 *1472:A2 0.000149543
35 *149:67 *224:23 0.000233882
36 *175:20 *224:8 0.000298728
37 *175:24 *224:8 0.000721475
38 *176:8 *224:8 0.000430313
39 *181:38 *1472:A2 7.08306e-05
40 *181:38 *224:23 0.000121268
41 *192:20 *224:31 7.91281e-05
42 *192:28 *224:23 1.32056e-05
43 *194:16 *1450:B1 0.000228791
44 *197:10 *224:23 6.05161e-06
45 *220:16 *224:8 0.00047563
*RES
1 *1592:X *224:8 40.6214 
2 *224:8 *1472:A2 15.7464 
3 *224:8 *224:23 9.83929 
4 *224:23 *224:31 24.9643 
5 *224:31 *1450:B1 32.8 
6 *224:31 *1454:B 14.3536 
7 *224:23 *1453:A1 9.3 
*END

*D_NET *225 0.0426886
*CONN
*I *1399:B1 I *D sky130_fd_sc_hd__a22oi_4
*I *1395:B1 I *D sky130_fd_sc_hd__a22o_1
*I *1400:D I *D sky130_fd_sc_hd__and4_2
*I *1393:A I *D sky130_fd_sc_hd__buf_4
*I *1575:X O *D sky130_fd_sc_hd__buf_2
*CAP
1 *1399:B1 0.000716331
2 *1395:B1 0
3 *1400:D 6.18993e-05
4 *1393:A 0.000699985
5 *1575:X 0.000882049
6 *225:103 0.0015936
7 *225:84 0.00155407
8 *225:78 0.00189677
9 *225:70 0.00192482
10 *225:34 0.00143698
11 *225:14 0.00110579
12 *225:10 0.00189381
13 *1399:B1 *1448:A 5.33334e-05
14 *225:10 *228:35 0.000712871
15 *225:34 *227:23 0.0001863
16 *225:70 *228:35 0.00011323
17 *225:70 *230:20 0.000381791
18 *225:84 *230:10 0.000595974
19 *225:103 *1506:B 0.000272597
20 *1399:A1 *1399:B1 0.00289694
21 *1400:C *225:14 0.000281567
22 *1404:A *225:103 9.90431e-05
23 *1417:A_N *225:70 0.000308006
24 *1448:B *1399:B1 0.00104946
25 *1467:B *225:70 8.59056e-05
26 *1471:B1 *1399:B1 2.59355e-05
27 *1471:C1 *1399:B1 4.74664e-05
28 *1474:B *225:34 0.00186116
29 *1488:A2 *1399:B1 0.000525568
30 *1488:A3 *1399:B1 0.000352234
31 *1504:A2 *225:70 0.00107817
32 *1504:B1 *225:70 1.12669e-05
33 *1509:A1 *225:34 3.17148e-05
34 *1509:A2 *225:34 3.69697e-05
35 *1510:B *225:34 0.00182459
36 *1510:C *225:34 5.58941e-05
37 *1516:A1 *225:84 8.41898e-05
38 *1517:B *1399:B1 5.21164e-05
39 *1518:A2 *225:103 9.18818e-05
40 *1550:B1 *225:78 7.83659e-05
41 *1591:A *225:78 0.000173083
42 *40:14 *225:84 0.000410231
43 *41:27 *225:84 0.000429512
44 *47:20 *1393:A 5.49544e-05
45 *49:28 *1399:B1 6.81384e-05
46 *52:24 *225:70 0.000175197
47 *53:28 *225:78 0.000944132
48 *53:32 *225:78 3.73779e-05
49 *57:27 *225:34 0.000233027
50 *57:46 *1393:A 5.33005e-05
51 *57:46 *225:34 5.33005e-05
52 *60:43 *225:103 0.00019099
53 *71:10 *225:78 0.00239055
54 *76:16 *225:78 0.000370307
55 *80:14 *1393:A 0.000906839
56 *80:14 *225:34 1.38323e-05
57 *82:24 *225:78 0.000171395
58 *103:12 *225:14 0
59 *103:12 *225:34 0
60 *109:10 *225:78 0.00142596
61 *128:8 *225:14 0.00071825
62 *128:8 *225:34 0.000176234
63 *130:99 *225:70 0.000194988
64 *133:137 *225:84 0.000147246
65 *133:146 *225:84 1.578e-05
66 *133:146 *225:103 0.000411294
67 *133:162 *225:103 0.00199668
68 *136:61 *225:84 0.000262498
69 *138:16 *225:84 0
70 *138:16 *225:103 0
71 *139:12 *225:84 0.000221827
72 *143:10 *1399:B1 0.00069769
73 *144:28 *225:10 0.000561838
74 *144:28 *225:70 0.000211103
75 *148:12 *225:103 9.91086e-05
76 *149:48 *225:103 0.000709834
77 *155:20 *1399:B1 0.000241731
78 *168:36 *1393:A 7.6644e-05
79 *192:10 *1399:B1 9.90367e-05
80 *192:32 *225:70 0.000306083
81 *193:8 *225:78 0.000247228
82 *201:33 *1400:D 0.00010096
83 *201:49 *225:14 0.000122012
84 *208:10 *225:103 0
85 *209:16 *225:78 7.79781e-06
*RES
1 *1575:X *225:10 27.6393 
2 *225:10 *225:14 14.0357 
3 *225:14 *225:34 49.3571 
4 *225:34 *1393:A 28.6214 
5 *225:14 *1400:D 15.1571 
6 *225:10 *225:70 35.8036 
7 *225:70 *225:78 46.2679 
8 *225:78 *225:84 24.3393 
9 *225:84 *1395:B1 13.8 
10 *225:84 *225:103 44.9107 
11 *225:103 *1399:B1 43.425 
*END

*D_NET *226 0.0243015
*CONN
*I *1557:A1 I *D sky130_fd_sc_hd__o22a_1
*I *1555:A2 I *D sky130_fd_sc_hd__a31o_1
*I *1469:A I *D sky130_fd_sc_hd__or2_1
*I *1553:B I *D sky130_fd_sc_hd__nor2_2
*I *1558:A2 I *D sky130_fd_sc_hd__a21oi_1
*I *1452:A I *D sky130_fd_sc_hd__nand2_4
*I *1576:X O *D sky130_fd_sc_hd__buf_2
*CAP
1 *1557:A1 0.000358504
2 *1555:A2 0
3 *1469:A 0.000972619
4 *1553:B 0.00115369
5 *1558:A2 0
6 *1452:A 0
7 *1576:X 0.000713477
8 *226:76 0.000546005
9 *226:48 0.00368465
10 *226:27 0.00206816
11 *226:14 0.00151021
12 *226:10 0.00190136
13 *226:10 *229:14 0.000304145
14 *1452:B *226:27 0.00018172
15 *1469:B *1469:A 0.000179313
16 *1477:A1 *1553:B 2.59093e-05
17 *1501:C_N *1469:A 0.000437709
18 *1501:C_N *1553:B 0.000800512
19 *1530:C_N *226:48 3.97677e-05
20 *1538:A2 *1553:B 0
21 *1546:A1 *226:48 8.6229e-06
22 *1558:A1 *226:27 2.23559e-05
23 *1558:A1 *226:48 2.12087e-05
24 *1558:B1 *226:27 0.000207592
25 *1559:B1 *226:27 1.8584e-05
26 *1588:A *1553:B 0.000290875
27 *45:33 *1469:A 0.000439011
28 *45:33 *1553:B 0.000400994
29 *53:74 *226:48 0.000180355
30 *59:8 *1469:A 0.000153047
31 *64:10 *226:48 3.88986e-05
32 *74:28 *1553:B 0.000186344
33 *88:24 *226:48 0.00013278
34 *114:10 *226:48 1.03403e-05
35 *136:108 *1553:B 0
36 *137:28 *226:48 5.49489e-05
37 *142:112 *1469:A 0.000431588
38 *143:30 *1469:A 4.0155e-05
39 *151:22 *1469:A 0.000408876
40 *158:43 *226:48 5.19522e-06
41 *164:54 *226:27 0.000441008
42 *167:40 *226:14 0.00140888
43 *167:40 *226:27 0.000222603
44 *176:28 *226:48 3.69489e-05
45 *181:107 *1557:A1 0.000378558
46 *181:107 *226:76 3.29297e-05
47 *181:115 *1557:A1 1.00887e-05
48 *181:115 *226:10 0.000314085
49 *181:115 *226:76 0.000383104
50 *188:6 *1469:A 2.42516e-05
51 *196:18 *226:27 0.00149367
52 *196:18 *226:48 4.20689e-05
53 *196:26 *226:48 0.00124344
54 *196:47 *1469:A 0
55 *204:16 *1557:A1 0.000340326
56 *213:26 *1553:B 0
*RES
1 *1576:X *226:10 24.5679 
2 *226:10 *226:14 23.5179 
3 *226:14 *1452:A 9.3 
4 *226:14 *226:27 17.5357 
5 *226:27 *1558:A2 9.3 
6 *226:27 *226:48 37.1964 
7 *226:48 *1553:B 39.7464 
8 *226:48 *1469:A 36.3536 
9 *226:10 *226:76 4.98214 
10 *226:76 *1555:A2 13.8 
11 *226:76 *1557:A1 22.1929 
*END

*D_NET *227 0.0327583
*CONN
*I *1475:A I *D sky130_fd_sc_hd__nand2_2
*I *1445:A2 I *D sky130_fd_sc_hd__a21oi_1
*I *1446:A2 I *D sky130_fd_sc_hd__o22a_1
*I *1440:A I *D sky130_fd_sc_hd__nor2_1
*I *1447:A2 I *D sky130_fd_sc_hd__a311o_1
*I *1474:A I *D sky130_fd_sc_hd__or2_2
*I *1577:X O *D sky130_fd_sc_hd__buf_2
*CAP
1 *1475:A 0.000214662
2 *1445:A2 3.49845e-05
3 *1446:A2 0
4 *1440:A 0
5 *1447:A2 0.000663233
6 *1474:A 0
7 *1577:X 0.00113317
8 *227:108 0.00156483
9 *227:102 0.00347487
10 *227:81 0.00255984
11 *227:66 0.000943897
12 *227:45 0.00190216
13 *227:23 0.00236066
14 *227:8 0.00171116
15 *227:23 *228:35 0.000181036
16 *227:66 *228:35 0.000856692
17 *227:108 *228:66 3.29584e-05
18 *1445:B1 *227:108 0.000353178
19 *1446:A1 *227:81 0.000104171
20 *1446:B2 *227:81 5.49544e-05
21 *1446:B2 *227:102 0.000186817
22 *1447:B1 *1447:A2 0.000726274
23 *1461:B *227:81 5.62635e-05
24 *1461:B *227:102 0.000214218
25 *1474:B *227:23 0.000355002
26 *1489:A *1475:A 1.17091e-05
27 *1491:A_N *227:23 0
28 *1510:A *227:23 8.08022e-05
29 *1515:A1 *227:108 5.7903e-06
30 *1540:A1 *227:102 0.000474909
31 *1559:B1 *227:81 0.00021191
32 *1584:A *1475:A 0
33 *35:12 *227:102 0.000234322
34 *47:45 *1475:A 5.49544e-05
35 *48:12 *227:8 5.62995e-05
36 *48:12 *227:23 4.14279e-05
37 *49:12 *1475:A 1.13883e-05
38 *53:32 *227:23 0.0001595
39 *53:32 *227:45 7.87601e-05
40 *57:10 *227:23 0.000440482
41 *58:16 *227:108 0.00129
42 *59:31 *227:108 0.000389457
43 *71:10 *227:45 0.00016979
44 *82:24 *227:23 0.000393999
45 *91:22 *227:45 0.000401385
46 *97:20 *227:45 1.13072e-05
47 *103:12 *227:45 0.00111459
48 *104:22 *227:45 0.000233048
49 *130:99 *227:23 0.000259734
50 *131:48 *227:102 0.000106526
51 *133:44 *227:23 0
52 *133:44 *227:45 0.000202458
53 *134:105 *227:102 0.000129366
54 *136:108 *227:102 0.000405982
55 *140:24 *227:81 9.11048e-06
56 *142:112 *227:102 0.000597637
57 *144:28 *227:23 9.59419e-05
58 *144:28 *227:66 0.000763486
59 *144:30 *227:102 2.13481e-06
60 *145:22 *227:66 3.29297e-05
61 *145:22 *227:81 0.000840155
62 *161:10 *227:45 0.000444134
63 *164:23 *227:45 4.26537e-05
64 *170:31 *1475:A 0
65 *174:24 *227:66 3.04581e-05
66 *183:131 *227:108 8.93791e-05
67 *183:180 *227:45 0.000233667
68 *187:28 *227:102 0.000549557
69 *190:24 *227:66 0.00041504
70 *199:16 *227:66 2.85321e-05
71 *199:25 *227:66 7.25873e-06
72 *199:29 *227:66 0.000141703
73 *205:12 *1447:A2 1.83136e-05
74 *205:21 *1447:A2 2.18902e-05
75 *205:42 *1445:A2 6.05161e-06
76 *206:58 *227:45 0.000395662
77 *206:66 *227:81 0.000419639
78 *214:8 *227:102 6.5036e-05
79 *217:16 *227:102 0.000595284
80 *219:30 *227:23 1.18064e-05
81 *222:37 *227:45 5.96516e-05
82 *225:34 *227:23 0.0001863
*RES
1 *1577:X *227:8 26.9964 
2 *227:8 *1474:A 9.3 
3 *227:8 *227:23 27.5714 
4 *227:23 *227:45 48.0357 
5 *227:45 *1447:A2 18.0679 
6 *227:23 *227:66 26.8214 
7 *227:66 *1440:A 9.3 
8 *227:66 *227:81 20.7321 
9 *227:81 *1446:A2 9.3 
10 *227:81 *227:102 48.9107 
11 *227:102 *227:108 35.1607 
12 *227:108 *1445:A2 14.3357 
13 *227:108 *1475:A 17.5321 
*END

*D_NET *228 0.0347385
*CONN
*I *1499:B I *D sky130_fd_sc_hd__nor2_1
*I *1485:A I *D sky130_fd_sc_hd__nor2_1
*I *1503:A1 I *D sky130_fd_sc_hd__o211ai_2
*I *1500:B I *D sky130_fd_sc_hd__nand2_1
*I *1484:A I *D sky130_fd_sc_hd__and2_4
*I *1578:X O *D sky130_fd_sc_hd__buf_2
*CAP
1 *1499:B 0.000233502
2 *1485:A 0.000164734
3 *1503:A1 0.000756463
4 *1500:B 0.000198194
5 *1484:A 0
6 *1578:X 0.000475421
7 *228:78 0.0018662
8 *228:66 0.00250983
9 *228:51 0.00425822
10 *228:35 0.00476762
11 *228:16 0.0025281
12 *228:12 0.00129406
13 *228:16 *229:14 0
14 *228:35 *229:14 0
15 *1445:B1 *228:78 1.58357e-05
16 *1485:B *1485:A 0.000426583
17 *1485:B *228:78 0.000141729
18 *1499:A *1499:B 6.20656e-05
19 *33:28 *228:35 0.000138004
20 *35:55 *228:51 4.24291e-05
21 *49:28 *1503:A1 9.00099e-05
22 *58:16 *228:66 0.00207913
23 *72:8 *1499:B 1.33343e-05
24 *87:8 *1485:A 0.00043902
25 *114:10 *1503:A1 0.00106037
26 *131:48 *1500:B 0
27 *131:48 *228:66 0
28 *134:105 *1500:B 0.000172773
29 *134:105 *228:66 0.000160522
30 *144:28 *228:35 3.78423e-05
31 *147:25 *228:78 0.000548336
32 *151:22 *228:51 0.000479136
33 *164:54 *228:35 0.000283956
34 *165:16 *228:78 0.00159729
35 *166:8 *228:51 1.85433e-05
36 *166:16 *228:78 0.00122491
37 *168:36 *228:51 0.000267877
38 *170:16 *228:66 0
39 *170:31 *228:66 0
40 *170:31 *228:78 7.8327e-05
41 *176:18 *1503:A1 0.00143196
42 *183:53 *1503:A1 0.00040618
43 *183:131 *228:66 6.42772e-05
44 *183:168 *228:51 0.00148552
45 *184:16 *228:51 0.000303705
46 *187:28 *228:66 0
47 *188:16 *228:66 2.29078e-05
48 *191:12 *228:12 8.58946e-05
49 *191:12 *228:16 0
50 *194:49 *228:78 0.000178847
51 *196:114 *1503:A1 2.00751e-05
52 *201:84 *1503:A1 0.000259235
53 *212:22 *1503:A1 0.00012384
54 *215:16 *1503:A1 2.89016e-05
55 *225:10 *228:35 0.000712871
56 *225:70 *228:35 0.00011323
57 *227:23 *228:35 0.000181036
58 *227:66 *228:35 0.000856692
59 *227:108 *228:66 3.29584e-05
*RES
1 *1578:X *228:12 26.6036 
2 *228:12 *228:16 14.6429 
3 *228:16 *1484:A 13.8 
4 *228:16 *228:35 49.375 
5 *228:35 *228:51 46.3214 
6 *228:51 *1500:B 17.8179 
7 *228:51 *228:66 34.6786 
8 *228:66 *228:78 42.8036 
9 *228:78 *1503:A1 38.7464 
10 *228:66 *1485:A 14.7821 
11 *228:12 *1499:B 13.55 
*END

*D_NET *229 0.0539724
*CONN
*I *1514:A1 I *D sky130_fd_sc_hd__o221a_1
*I *1506:B I *D sky130_fd_sc_hd__xnor2_4
*I *1512:A2 I *D sky130_fd_sc_hd__o21a_1
*I *1513:A2 I *D sky130_fd_sc_hd__a31oi_2
*I *1579:X O *D sky130_fd_sc_hd__buf_4
*CAP
1 *1514:A1 0.00573053
2 *1506:B 0.00060073
3 *1512:A2 0.00277496
4 *1513:A2 1.02545e-05
5 *1579:X 0.0015896
6 *229:47 0.00674484
7 *229:20 0.00656531
8 *229:14 0.010506
9 *1394:B *1506:B 0
10 *1424:A *229:47 0.000162023
11 *1450:A1 *1512:A2 6.27272e-06
12 *1450:B1 *1512:A2 5.7903e-06
13 *1461:A_N *1514:A1 0.000109521
14 *1505:A1 *1514:A1 0
15 *1506:A *1506:B 0.000733971
16 *1506:A *1512:A2 0.000154186
17 *1514:A2 *1514:A1 1.94945e-05
18 *1516:A2 *229:47 0
19 *1531:A *1514:A1 0
20 *1531:A *229:14 0
21 *1543:A *229:14 0
22 *1554:A_N *229:47 0.000197797
23 *39:20 *1513:A2 0
24 *41:44 *1506:B 0
25 *41:44 *1512:A2 0
26 *50:29 *1514:A1 0
27 *77:20 *1514:A1 0.000289548
28 *78:22 *1506:B 0
29 *81:20 *1514:A1 0.00191543
30 *84:26 *1512:A2 0.00464533
31 *85:22 *1514:A1 0.000217389
32 *88:24 *1514:A1 0.0011558
33 *91:14 *229:47 0.000202832
34 *109:20 *229:14 0
35 *111:24 *229:47 0.000890846
36 *148:30 *1513:A2 2.11419e-05
37 *148:30 *229:20 0.000136501
38 *149:48 *1506:B 0.000150456
39 *162:27 *229:47 0.000219475
40 *169:49 *1514:A1 0.000337893
41 *174:24 *1514:A1 0
42 *181:87 *229:20 0.000129366
43 *181:107 *229:20 0.000192912
44 *181:115 *229:14 3.92914e-05
45 *188:18 *1514:A1 0
46 *204:16 *229:20 0.000628643
47 *207:23 *229:47 0.000491786
48 *211:24 *1514:A1 3.24808e-05
49 *219:22 *229:20 0.00306366
50 *219:22 *229:47 0.00272356
51 *225:103 *1506:B 0.000272597
52 *226:10 *229:14 0.000304145
53 *228:16 *229:14 0
54 *228:35 *229:14 0
*RES
1 *1579:X *229:14 44.3912 
2 *229:14 *229:20 13.3655 
3 *229:20 *1513:A2 17.4868 
4 *229:20 *229:47 20.6483 
5 *229:47 *1512:A2 31.1364 
6 *229:47 *1506:B 28.6661 
7 *229:14 *1514:A1 29.6046 
*END

*D_NET *230 0.0327452
*CONN
*I *1398:A I *D sky130_fd_sc_hd__buf_4
*I *1448:A I *D sky130_fd_sc_hd__or2_4
*I *1409:A I *D sky130_fd_sc_hd__and4_1
*I *1400:A I *D sky130_fd_sc_hd__and4_2
*I *1580:X O *D sky130_fd_sc_hd__clkbuf_2
*CAP
1 *1398:A 0.00025111
2 *1448:A 0.00112299
3 *1409:A 0
4 *1400:A 3.81116e-05
5 *1580:X 0.00122846
6 *230:54 0.00282889
7 *230:41 0.00316302
8 *230:20 0.00146096
9 *230:18 0.00182348
10 *230:10 0.00333731
11 *1397:A *230:41 0.000160957
12 *1397:A *230:54 8.45688e-05
13 *1399:B1 *1448:A 5.33334e-05
14 *1409:D *230:41 0.000407263
15 *1424:A *230:10 0.000109425
16 *1424:A *230:18 0.000234866
17 *1442:B *230:54 2.59355e-05
18 *1463:A *230:54 0.000595922
19 *1467:B *230:20 0.00182528
20 *1480:B *230:20 3.67548e-05
21 *1480:C *230:20 0.000325772
22 *1511:A2 *230:41 1.94879e-05
23 *1516:A1 *230:10 3.14003e-05
24 *1517:B *1448:A 0.000669014
25 *1523:B1 *230:10 0.000216907
26 *1549:A1 *230:10 5.33005e-05
27 *36:16 *1398:A 2.72695e-05
28 *36:16 *230:54 0.000146997
29 *37:10 *230:54 0.000141729
30 *40:14 *230:10 7.33211e-05
31 *40:14 *230:20 2.31791e-05
32 *44:22 *230:54 0.000308595
33 *51:18 *1400:A 6.05161e-06
34 *52:24 *230:20 0.000268529
35 *53:28 *230:10 0.000606872
36 *53:28 *230:20 0.000165074
37 *53:28 *230:41 1.09611e-05
38 *53:38 *230:20 4.6374e-05
39 *53:107 *230:10 0.000193187
40 *78:22 *1448:A 0.00015158
41 *109:18 *230:18 4.82865e-05
42 *121:8 *230:10 5.21894e-05
43 *128:8 *230:10 0.00020475
44 *128:8 *230:18 0.00111268
45 *128:8 *230:20 0.0037278
46 *130:99 *230:20 0
47 *133:18 *230:10 8.74872e-05
48 *133:20 *230:10 3.36969e-05
49 *133:20 *230:18 0.00111648
50 *142:16 *1398:A 5.72432e-05
51 *149:63 *1448:A 0
52 *149:67 *1448:A 0
53 *153:8 *230:41 3.97677e-05
54 *155:36 *230:18 2.79421e-05
55 *167:34 *230:20 0.000155447
56 *172:16 *1448:A 4.35141e-05
57 *181:38 *230:54 2.79421e-05
58 *186:18 *230:54 9.8278e-05
59 *186:65 *230:10 0.00036543
60 *192:20 *1448:A 9.10431e-06
61 *192:28 *1448:A 0.000289294
62 *194:18 *1448:A 0.000521949
63 *197:10 *1448:A 0
64 *201:71 *230:41 2.23592e-05
65 *201:84 *230:41 5.94744e-05
66 *201:84 *230:54 0.00080723
67 *209:106 *230:54 7.02611e-05
68 *224:31 *1448:A 0.000514576
69 *225:70 *230:20 0.000381791
70 *225:84 *230:10 0.000595974
*RES
1 *1580:X *230:10 43.5946 
2 *230:10 *230:18 24.4911 
3 *230:18 *230:20 48.6964 
4 *230:20 *1400:A 14.3357 
5 *230:10 *230:41 19.4142 
6 *230:41 *1409:A 9.3 
7 *230:41 *230:54 24 
8 *230:54 *1448:A 45.175 
9 *230:54 *1398:A 12.6214 
*END
