*SPEF "ieee 1481-1999"
*DESIGN "twoscomplement"
*DATE "21:00:09 Thursday April 24, 2025"
*VENDOR "The OpenROAD Project"
*PROGRAM "OpenROAD"
*VERSION "b16bda7e82721d10566ff7e2b68f1ff0be9f9e38"
*DESIGN_FLOW "NAME_SCOPE LOCAL" "PIN_CAP NONE"
*DIVIDER /
*DELIMITER :
*BUS_DELIMITER []
*T_UNIT 1 NS
*C_UNIT 1 PF
*R_UNIT 1 OHM
*L_UNIT 1 HENRY

*NAME_MAP
*3 in[0]
*4 in[1]
*5 in[2]
*6 in[3]
*7 in[4]
*8 in[5]
*9 in[6]
*10 in[7]
*11 out[0]
*12 out[1]
*13 out[2]
*14 out[3]
*15 out[4]
*16 out[5]
*17 out[6]
*18 out[7]
*19 _00_
*20 _01_
*21 _02_
*22 _03_
*23 _04_
*24 _05_
*25 _06_
*26 _07_
*27 _08_
*28 net1
*29 net10
*30 net11
*31 net12
*32 net13
*33 net14
*34 net15
*35 net16
*36 net2
*37 net3
*38 net4
*39 net5
*40 net6
*41 net7
*42 net8
*43 net9
*44 FILLER_0_0_21
*45 FILLER_0_0_27
*46 FILLER_0_0_29
*47 FILLER_0_0_37
*48 FILLER_0_0_9
*49 FILLER_0_10_12
*50 FILLER_0_10_20
*51 FILLER_0_10_29
*52 FILLER_0_10_42
*53 FILLER_0_11_11
*54 FILLER_0_11_23
*55 FILLER_0_11_27
*56 FILLER_0_11_35
*57 FILLER_0_11_44
*58 FILLER_0_12_14
*59 FILLER_0_12_23
*60 FILLER_0_12_27
*61 FILLER_0_12_29
*62 FILLER_0_12_37
*63 FILLER_0_12_6
*64 FILLER_0_1_15
*65 FILLER_0_1_24
*66 FILLER_0_1_3
*67 FILLER_0_1_36
*68 FILLER_0_2_18
*69 FILLER_0_2_26
*70 FILLER_0_2_29
*71 FILLER_0_2_41
*72 FILLER_0_2_47
*73 FILLER_0_2_6
*74 FILLER_0_3_11
*75 FILLER_0_3_23
*76 FILLER_0_3_3
*77 FILLER_0_3_35
*78 FILLER_0_3_43
*79 FILLER_0_4_15
*80 FILLER_0_4_27
*81 FILLER_0_4_29
*82 FILLER_0_4_3
*83 FILLER_0_4_41
*84 FILLER_0_4_47
*85 FILLER_0_5_14
*86 FILLER_0_5_24
*87 FILLER_0_5_36
*88 FILLER_0_5_6
*89 FILLER_0_6_15
*90 FILLER_0_6_27
*91 FILLER_0_6_29
*92 FILLER_0_6_3
*93 FILLER_0_6_41
*94 FILLER_0_6_47
*95 FILLER_0_7_15
*96 FILLER_0_7_3
*97 FILLER_0_7_30
*98 FILLER_0_7_42
*99 FILLER_0_8_18
*100 FILLER_0_8_26
*101 FILLER_0_8_29
*102 FILLER_0_8_41
*103 FILLER_0_8_6
*104 FILLER_0_9_11
*105 FILLER_0_9_21
*106 FILLER_0_9_3
*107 FILLER_0_9_33
*108 FILLER_0_9_45
*109 PHY_EDGE_ROW_0_Left_13
*110 PHY_EDGE_ROW_0_Right_0
*111 PHY_EDGE_ROW_10_Left_23
*112 PHY_EDGE_ROW_10_Right_10
*113 PHY_EDGE_ROW_11_Left_24
*114 PHY_EDGE_ROW_11_Right_11
*115 PHY_EDGE_ROW_12_Left_25
*116 PHY_EDGE_ROW_12_Right_12
*117 PHY_EDGE_ROW_1_Left_14
*118 PHY_EDGE_ROW_1_Right_1
*119 PHY_EDGE_ROW_2_Left_15
*120 PHY_EDGE_ROW_2_Right_2
*121 PHY_EDGE_ROW_3_Left_16
*122 PHY_EDGE_ROW_3_Right_3
*123 PHY_EDGE_ROW_4_Left_17
*124 PHY_EDGE_ROW_4_Right_4
*125 PHY_EDGE_ROW_5_Left_18
*126 PHY_EDGE_ROW_5_Right_5
*127 PHY_EDGE_ROW_6_Left_19
*128 PHY_EDGE_ROW_6_Right_6
*129 PHY_EDGE_ROW_7_Left_20
*130 PHY_EDGE_ROW_7_Right_7
*131 PHY_EDGE_ROW_8_Left_21
*132 PHY_EDGE_ROW_8_Right_8
*133 PHY_EDGE_ROW_9_Left_22
*134 PHY_EDGE_ROW_9_Right_9
*135 TAP_TAPCELL_ROW_0_26
*136 TAP_TAPCELL_ROW_10_31
*137 TAP_TAPCELL_ROW_12_32
*138 TAP_TAPCELL_ROW_2_27
*139 TAP_TAPCELL_ROW_4_28
*140 TAP_TAPCELL_ROW_6_29
*141 TAP_TAPCELL_ROW_8_30
*142 _09_
*143 _10_
*144 _11_
*145 _12_
*146 _13_
*147 _14_
*148 _15_
*149 _16_
*150 _17_
*151 _18_
*152 _19_
*153 _20_
*154 _21_
*155 _22_
*156 _23_
*157 _24_
*158 _25_
*159 input1
*160 input2
*161 input3
*162 input4
*163 input5
*164 input6
*165 input7
*166 input8
*167 output10
*168 output11
*169 output12
*170 output13
*171 output14
*172 output15
*173 output16
*174 output9

*PORTS
in[0] I
in[1] I
in[2] I
in[3] I
in[4] I
in[5] I
in[6] I
in[7] I
out[0] O
out[1] O
out[2] O
out[3] O
out[4] O
out[5] O
out[6] O
out[7] O

*D_NET *3 0.00102794
*CONN
*P in[0] I
*I *159:A I *D sky130_fd_sc_hd__buf_1
*CAP
1 in[0] 0.000505994
2 *159:A 0.000505994
3 *159:A *154:B1 0
4 *159:A *158:A 0
5 *159:A *160:A 1.59477e-05
*RES
1 in[0] *159:A 10.2018 
*END

*D_NET *4 0.00103684
*CONN
*P in[1] I
*I *160:A I *D sky130_fd_sc_hd__buf_1
*CAP
1 in[1] 0.000442056
2 *160:A 0.000442056
3 *160:A *154:A1 5.54245e-05
4 *160:A *154:B1 2.75145e-05
5 *160:A *161:A 0
6 *160:A *28:6 4.43591e-05
7 *160:A *28:26 9.47972e-06
8 *159:A *160:A 1.59477e-05
*RES
1 in[1] *160:A 9.44197 
*END

*D_NET *5 0.000966972
*CONN
*P in[2] I
*I *161:A I *D sky130_fd_sc_hd__buf_1
*CAP
1 in[2] 0.000342405
2 *161:A 0.000342405
3 *161:A *146:A 6.08468e-05
4 *161:A *148:A 0
5 *161:A *148:D 4.89295e-05
6 *161:A *162:A 0
7 *161:A *23:6 0.000172386
8 *160:A *161:A 0
*RES
1 in[2] *161:A 8.8887 
*END

*D_NET *6 0.000645774
*CONN
*P in[3] I
*I *162:A I *D sky130_fd_sc_hd__clkbuf_1
*CAP
1 in[3] 0.000322887
2 *162:A 0.000322887
3 *162:A *149:A_N 0
4 *162:A *163:A 0
5 *161:A *162:A 0
*RES
1 in[3] *162:A 7.8543 
*END

*D_NET *7 0.000566003
*CONN
*P in[4] I
*I *163:A I *D sky130_fd_sc_hd__buf_1
*CAP
1 in[4] 0.000283002
2 *163:A 0.000283002
3 *163:A *149:A_N 0
4 *163:A *164:A 0
5 *162:A *163:A 0
*RES
1 in[4] *163:A 7.0893 
*END

*D_NET *8 0.000523624
*CONN
*P in[5] I
*I *164:A I *D sky130_fd_sc_hd__buf_1
*CAP
1 in[5] 0.000261812
2 *164:A 0.000261812
3 *164:A *165:A 0
4 *163:A *164:A 0
*RES
1 in[5] *164:A 6.8343 
*END

*D_NET *9 0.000523624
*CONN
*P in[6] I
*I *165:A I *D sky130_fd_sc_hd__clkbuf_1
*CAP
1 in[6] 0.000261812
2 *165:A 0.000261812
3 *165:A *166:A 0
4 *164:A *165:A 0
*RES
1 in[6] *165:A 6.8343 
*END

*D_NET *10 0.00115517
*CONN
*P in[7] I
*I *166:A I *D sky130_fd_sc_hd__buf_1
*CAP
1 in[7] 0.000577586
2 *166:A 0.000577586
3 *165:A *166:A 0
*RES
1 in[7] *166:A 10.6316 
*END

*D_NET *11 0.00109227
*CONN
*P out[0] O
*I *174:X O *D sky130_fd_sc_hd__buf_2
*CAP
1 out[0] 0.000546133
2 *174:X 0.000546133
3 out[0] out[1] 0
*RES
1 *174:X out[0] 9.66983 
*END

*D_NET *12 0.000411239
*CONN
*P out[1] O
*I *167:X O *D sky130_fd_sc_hd__buf_2
*CAP
1 out[1] 0.00020562
2 *167:X 0.00020562
3 out[1] out[2] 0
4 out[0] out[1] 0
*RES
1 *167:X out[1] 4.84677 
*END

*D_NET *13 0.000413408
*CONN
*P out[2] O
*I *168:X O *D sky130_fd_sc_hd__buf_2
*CAP
1 out[2] 0.000200848
2 *168:X 0.000200848
3 out[2] out[3] 0
4 out[2] *169:A 1.17114e-05
5 out[1] out[2] 0
*RES
1 *168:X out[2] 4.84677 
*END

*D_NET *14 0.000541318
*CONN
*P out[3] O
*I *169:X O *D sky130_fd_sc_hd__buf_2
*CAP
1 out[3] 0.000248641
2 *169:X 0.000248641
3 out[3] out[4] 0
4 out[3] *173:A 4.40358e-05
5 out[2] out[3] 0
*RES
1 *169:X out[3] 5.86677 
*END

*D_NET *15 0.000764568
*CONN
*P out[4] O
*I *170:X O *D sky130_fd_sc_hd__buf_2
*CAP
1 out[4] 0.000366995
2 *170:X 0.000366995
3 out[4] out[5] 0
4 out[4] *145:B 1.88656e-05
5 out[4] *170:A 1.17114e-05
6 out[3] out[4] 0
*RES
1 *170:X out[4] 5.1381 
*END

*D_NET *16 0.00054695
*CONN
*P out[5] O
*I *171:X O *D sky130_fd_sc_hd__buf_2
*CAP
1 out[5] 0.000251457
2 *171:X 0.000251457
3 out[5] out[6] 0
4 out[5] *173:A 4.40358e-05
5 out[4] out[5] 0
*RES
1 *171:X out[5] 5.86677 
*END

*D_NET *17 0.000723691
*CONN
*P out[6] O
*I *172:X O *D sky130_fd_sc_hd__buf_2
*CAP
1 out[6] 0.000361845
2 *172:X 0.000361845
3 out[6] out[7] 0
4 out[5] out[6] 0
*RES
1 *172:X out[6] 5.19637 
*END

*D_NET *18 0.000971234
*CONN
*P out[7] O
*I *173:X O *D sky130_fd_sc_hd__clkbuf_4
*CAP
1 out[7] 0.000485617
2 *173:X 0.000485617
3 out[6] out[7] 0
*RES
1 *173:X out[7] 10.1435 
*END

*D_NET *19 0.00629595
*CONN
*I *157:B1_N I *D sky130_fd_sc_hd__a21boi_1
*I *143:B I *D sky130_fd_sc_hd__nor2_1
*I *147:A3 I *D sky130_fd_sc_hd__o31a_1
*I *148:D I *D sky130_fd_sc_hd__or4_1
*I *144:B I *D sky130_fd_sc_hd__and2_1
*I *142:X O *D sky130_fd_sc_hd__or4_2
*CAP
1 *157:B1_N 0.000242096
2 *143:B 8.61954e-05
3 *147:A3 0
4 *148:D 0.000333554
5 *144:B 0.000339623
6 *142:X 0
7 *19:59 0.000526383
8 *19:29 0.000560657
9 *19:25 0.000648159
10 *19:6 0.000562588
11 *143:B *143:A 4.66108e-05
12 *143:B *157:A2 4.9893e-05
13 *144:B *144:A 0.000681023
14 *144:B *145:B 1.1392e-05
15 *144:B *153:A 0
16 *144:B *168:A 0.000179638
17 *144:B *171:A 0
18 *144:B *39:20 0.000140844
19 *148:D *145:A 4.60654e-05
20 *148:D *146:A 1.31227e-05
21 *148:D *148:A 0.000233742
22 *148:D *148:C 7.21296e-06
23 *148:D *149:B 6.53767e-05
24 *148:D *150:A 2.75092e-05
25 *148:D *151:B 4.66108e-05
26 *148:D *23:6 4.77719e-05
27 *148:D *25:12 3.47837e-05
28 *148:D *39:24 8.52845e-05
29 *157:B1_N *157:A1 2.30292e-05
30 *157:B1_N *157:A2 0.00042877
31 *157:B1_N *169:A 8.8266e-05
32 *157:B1_N *174:A 1.61831e-05
33 *19:25 *171:A 0
34 *19:25 *39:20 0.000203891
35 *19:29 *147:B1 4.77757e-05
36 *19:29 *28:51 1.17409e-05
37 *19:29 *39:24 7.30866e-05
38 *19:59 *143:A 1.07797e-05
39 *19:59 *157:A1 0
40 *19:59 *171:A 0
41 *19:59 *28:51 0.000289698
42 *19:59 *39:20 3.76596e-05
43 *161:A *148:D 4.89295e-05
*RES
1 *142:X *19:6 3.6 
2 *19:6 *144:B 13.095 
3 *19:6 *19:25 4.995 
4 *19:25 *19:29 5.21 
5 *19:29 *148:D 15.51 
6 *19:29 *147:A3 1.6 
7 *19:25 *19:59 6.44 
8 *19:59 *143:B 3.1 
9 *19:59 *157:B1_N 7.225 
*END

*D_NET *20 0.00385759
*CONN
*I *145:A I *D sky130_fd_sc_hd__nor2_1
*I *146:B I *D sky130_fd_sc_hd__xnor2_1
*I *143:Y O *D sky130_fd_sc_hd__nor2_1
*CAP
1 *145:A 0.000974282
2 *146:B 3.55039e-05
3 *143:Y 9.60195e-05
4 *20:12 0.00110581
5 *145:A *151:B 1.42263e-05
6 *145:A *153:B 3.57924e-05
7 *145:A *156:A 0.000888564
8 *145:A *25:12 0
9 *146:B *150:A 2.10152e-05
10 *146:B *151:B 0.000121643
11 *146:B *37:33 9.28507e-05
12 *20:12 *143:A 0.000118527
13 *20:12 *151:B 0.000144621
14 *20:12 *36:42 0.000118527
15 *20:12 *37:33 4.41506e-05
16 *148:D *145:A 4.60654e-05
*RES
1 *143:Y *20:12 8.465 
2 *20:12 *146:B 3.085 
3 *20:12 *145:A 24.515 
*END

*D_NET *21 0.00240669
*CONN
*I *145:B I *D sky130_fd_sc_hd__nor2_1
*I *144:X O *D sky130_fd_sc_hd__and2_1
*CAP
1 *145:B 0.000557694
2 *144:X 0.000557694
3 *145:B *170:A 0.000609127
4 *145:B *172:A 0
5 *145:B *173:A 0.000651923
6 out[4] *145:B 1.88656e-05
7 *144:B *145:B 1.1392e-05
*RES
1 *144:X *145:B 21.81 
*END

*D_NET *22 0.00278152
*CONN
*I *149:A_N I *D sky130_fd_sc_hd__and2b_1
*I *147:X O *D sky130_fd_sc_hd__o31a_1
*CAP
1 *149:A_N 0.000727424
2 *147:X 0.000727424
3 *149:A_N *147:A2 0.000304533
4 *149:A_N *148:A 8.73389e-06
5 *149:A_N *40:10 0.00101341
6 *162:A *149:A_N 0
7 *163:A *149:A_N 0
*RES
1 *147:X *149:A_N 21.99 
*END

*D_NET *23 0.00522501
*CONN
*I *151:B I *D sky130_fd_sc_hd__xor2_1
*I *149:B I *D sky130_fd_sc_hd__and2b_1
*I *148:X O *D sky130_fd_sc_hd__or4_1
*CAP
1 *151:B 0.000552774
2 *149:B 0.000618033
3 *148:X 0.000169361
4 *23:6 0.00134017
5 *149:B *148:C 0.000112731
6 *149:B *41:10 0.001101
7 *151:B *146:A 2.94601e-05
8 *151:B *150:A 0.000612939
9 *151:B *171:A 1.34503e-05
10 *151:B *172:A 3.45679e-05
11 *151:B *25:12 2.7881e-05
12 *145:A *151:B 1.42263e-05
13 *146:B *151:B 0.000121643
14 *148:D *149:B 6.53767e-05
15 *148:D *151:B 4.66108e-05
16 *148:D *23:6 4.77719e-05
17 *161:A *23:6 0.000172386
18 *20:12 *151:B 0.000144621
*RES
1 *148:X *23:6 3.775 
2 *23:6 *149:B 20.285 
3 *23:6 *151:B 16.205 
*END

*D_NET *24 0.00370739
*CONN
*I *150:A I *D sky130_fd_sc_hd__clkbuf_1
*I *149:X O *D sky130_fd_sc_hd__and2b_1
*CAP
1 *150:A 0.00105087
2 *149:X 0.00105087
3 *150:A *146:A 3.1835e-05
4 *150:A *171:A 0.000490961
5 *150:A *25:12 0.000414263
6 *150:A *37:33 7.11235e-06
7 *146:B *150:A 2.10152e-05
8 *148:D *150:A 2.75092e-05
9 *151:B *150:A 0.000612939
*RES
1 *149:X *150:A 29.49 
*END

*D_NET *25 0.00451262
*CONN
*I *157:A2 I *D sky130_fd_sc_hd__a21boi_1
*I *155:A I *D sky130_fd_sc_hd__and2_1
*I *153:X O *D sky130_fd_sc_hd__or3_1
*CAP
1 *157:A2 0.000203305
2 *155:A 0.000188858
3 *153:X 0.000689129
4 *25:12 0.00108129
5 *155:A *155:B 8.65905e-05
6 *155:A *156:A 0.000100047
7 *155:A *158:A 4.66108e-05
8 *155:A *174:A 0.000198614
9 *157:A2 *143:A 4.66108e-05
10 *157:A2 *156:A 8.9128e-05
11 *157:A2 *157:A1 0.000163204
12 *157:A2 *174:A 0.000614195
13 *25:12 *148:C 0
14 *25:12 *156:A 0
15 *25:12 *36:42 0
16 *25:12 *39:12 4.94457e-05
17 *25:12 *40:23 0
18 *143:B *157:A2 4.9893e-05
19 *145:A *25:12 0
20 *148:D *25:12 3.47837e-05
21 *150:A *25:12 0.000414263
22 *151:B *25:12 2.7881e-05
23 *157:B1_N *157:A2 0.00042877
*RES
1 *153:X *25:12 18.14 
2 *25:12 *155:A 5.86 
3 *25:12 *157:A2 10.105 
*END

*D_NET *26 0.000397546
*CONN
*I *155:B I *D sky130_fd_sc_hd__and2_1
*I *154:Y O *D sky130_fd_sc_hd__o21ai_1
*CAP
1 *155:B 9.38906e-05
2 *154:Y 9.38906e-05
3 *155:B *154:B1 0.000116165
4 *155:B *156:A 7.00889e-06
5 *155:A *155:B 8.65905e-05
*RES
1 *154:Y *155:B 9.375 
*END

*D_NET *27 0.00323881
*CONN
*I *156:A I *D sky130_fd_sc_hd__clkbuf_1
*I *155:X O *D sky130_fd_sc_hd__and2_1
*CAP
1 *156:A 0.000590107
2 *155:X 0.000590107
3 *156:A *153:B 0.000341546
4 *156:A *153:C 1.34361e-05
5 *156:A *158:A 2.68526e-05
6 *156:A *28:51 0.000398083
7 *156:A *36:42 4.5783e-05
8 *156:A *37:33 0.000148143
9 *145:A *156:A 0.000888564
10 *155:A *156:A 0.000100047
11 *155:B *156:A 7.00889e-06
12 *157:A2 *156:A 8.9128e-05
13 *25:12 *156:A 0
*RES
1 *155:X *156:A 23.97 
*END

*D_NET *28 0.00557987
*CONN
*I *142:D I *D sky130_fd_sc_hd__or4_2
*I *153:C I *D sky130_fd_sc_hd__or3_1
*I *152:B I *D sky130_fd_sc_hd__xor2_1
*I *158:A I *D sky130_fd_sc_hd__clkbuf_1
*I *154:A2 I *D sky130_fd_sc_hd__o21ai_1
*I *159:X O *D sky130_fd_sc_hd__buf_1
*CAP
1 *142:D 0
2 *153:C 0.000135434
3 *152:B 2.09808e-05
4 *158:A 0.000136251
5 *154:A2 0
6 *159:X 8.59548e-05
7 *28:51 0.00073423
8 *28:26 0.000815586
9 *28:6 0.000418015
10 *153:C *153:A 0.000342721
11 *153:C *153:B 0.000317494
12 *153:C *37:33 6.68849e-05
13 *153:C *39:12 0.00012722
14 *158:A *154:B1 0.000175109
15 *28:6 *154:B1 4.82863e-05
16 *28:26 *154:A1 0.000123955
17 *28:26 *36:19 5.59604e-05
18 *28:26 *36:42 2.86975e-05
19 *28:51 *143:A 0.000308048
20 *28:51 *167:A 0.000163199
21 *28:51 *36:42 0.000118998
22 *28:51 *37:33 0.000398506
23 *28:51 *39:24 0.000118081
24 *155:A *158:A 4.66108e-05
25 *156:A *153:C 1.34361e-05
26 *156:A *158:A 2.68526e-05
27 *156:A *28:51 0.000398083
28 *159:A *158:A 0
29 *160:A *28:6 4.43591e-05
30 *160:A *28:26 9.47972e-06
31 *19:29 *28:51 1.17409e-05
32 *19:59 *28:51 0.000289698
*RES
1 *159:X *28:6 3.085 
2 *28:6 *154:A2 1.6 
3 *28:6 *158:A 8.45 
4 *28:6 *28:26 3.555 
5 *28:26 *152:B 1.96 
6 *28:26 *28:51 21.225 
7 *28:51 *153:C 9.03 
8 *28:51 *142:D 3.6 
*END

*D_NET *29 0.00119228
*CONN
*I *167:A I *D sky130_fd_sc_hd__buf_2
*I *152:X O *D sky130_fd_sc_hd__xor2_1
*CAP
1 *167:A 0.000490396
2 *152:X 0.000490396
3 *167:A *36:42 4.82863e-05
4 *28:51 *167:A 0.000163199
*RES
1 *152:X *167:A 11.255 
*END

*D_NET *30 0.00275675
*CONN
*I *168:A I *D sky130_fd_sc_hd__buf_2
*I *156:X O *D sky130_fd_sc_hd__clkbuf_1
*CAP
1 *168:A 0.000736486
2 *156:X 0.000736486
3 *168:A *144:A 2.26018e-05
4 *168:A *151:A 1.94723e-05
5 *168:A *153:A 4.99619e-05
6 *168:A *170:A 5.4003e-05
7 *168:A *172:A 0.000463414
8 *168:A *173:A 0.000468031
9 *168:A *39:12 2.66586e-05
10 *144:B *168:A 0.000179638
*RES
1 *156:X *168:A 25.215 
*END

*D_NET *31 0.00115827
*CONN
*I *169:A I *D sky130_fd_sc_hd__buf_2
*I *157:Y O *D sky130_fd_sc_hd__a21boi_1
*CAP
1 *169:A 0.000334947
2 *157:Y 0.000334947
3 *169:A *157:A1 0
4 *169:A *173:A 0.0003884
5 out[2] *169:A 1.17114e-05
6 *157:B1_N *169:A 8.8266e-05
*RES
1 *157:Y *169:A 14.31 
*END

*D_NET *32 0.00262503
*CONN
*I *170:A I *D sky130_fd_sc_hd__buf_2
*I *145:Y O *D sky130_fd_sc_hd__nor2_1
*CAP
1 *170:A 0.000636765
2 *145:Y 0.000636765
3 *170:A *172:A 0.000676657
4 *170:A *173:A 0
5 out[4] *170:A 1.17114e-05
6 *145:B *170:A 0.000609127
7 *168:A *170:A 5.4003e-05
*RES
1 *145:Y *170:A 20.925 
*END

*D_NET *33 0.00379398
*CONN
*I *171:A I *D sky130_fd_sc_hd__buf_2
*I *146:Y O *D sky130_fd_sc_hd__xnor2_1
*CAP
1 *171:A 0.00140762
2 *146:Y 0.00140762
3 *171:A *142:A 0.000116853
4 *171:A *151:A 0
5 *171:A *153:A 0
6 *171:A *157:A1 0.000357483
7 *144:B *171:A 0
8 *150:A *171:A 0.000490961
9 *151:B *171:A 1.34503e-05
10 *19:25 *171:A 0
11 *19:59 *171:A 0
*RES
1 *146:Y *171:A 29.655 
*END

*D_NET *34 0.00410375
*CONN
*I *172:A I *D sky130_fd_sc_hd__buf_2
*I *150:X O *D sky130_fd_sc_hd__clkbuf_1
*CAP
1 *172:A 0.000626634
2 *150:X 0.000626634
3 *172:A *151:A 0.00167584
4 *172:A *173:A 0
5 *145:B *172:A 0
6 *151:B *172:A 3.45679e-05
7 *168:A *172:A 0.000463414
8 *170:A *172:A 0.000676657
*RES
1 *150:X *172:A 28.68 
*END

*D_NET *35 0.0033041
*CONN
*I *173:A I *D sky130_fd_sc_hd__clkbuf_4
*I *151:X O *D sky130_fd_sc_hd__xor2_1
*CAP
1 *173:A 0.000853835
2 *151:X 0.000853835
3 *173:A *157:A1 0
4 out[3] *173:A 4.40358e-05
5 out[5] *173:A 4.40358e-05
6 *145:B *173:A 0.000651923
7 *168:A *173:A 0.000468031
8 *169:A *173:A 0.0003884
9 *170:A *173:A 0
10 *172:A *173:A 0
*RES
1 *151:X *173:A 28.755 
*END

*D_NET *36 0.00447429
*CONN
*I *142:C I *D sky130_fd_sc_hd__or4_2
*I *153:B I *D sky130_fd_sc_hd__or3_1
*I *152:A I *D sky130_fd_sc_hd__xor2_1
*I *154:A1 I *D sky130_fd_sc_hd__o21ai_1
*I *160:X O *D sky130_fd_sc_hd__buf_1
*CAP
1 *142:C 0
2 *153:B 0.000243773
3 *152:A 0
4 *154:A1 7.6589e-05
5 *160:X 0
6 *36:42 0.000737208
7 *36:19 0.00066457
8 *36:4 0.000247724
9 *153:B *153:A 7.22521e-05
10 *36:42 *143:A 0.00016599
11 *36:42 *37:33 0.000577798
12 *36:42 *39:20 0.000397925
13 *145:A *153:B 3.57924e-05
14 *153:C *153:B 0.000317494
15 *156:A *153:B 0.000341546
16 *156:A *36:42 4.5783e-05
17 *160:A *154:A1 5.54245e-05
18 *167:A *36:42 4.82863e-05
19 *20:12 *36:42 0.000118527
20 *25:12 *36:42 0
21 *28:26 *154:A1 0.000123955
22 *28:26 *36:19 5.59604e-05
23 *28:26 *36:42 2.86975e-05
24 *28:51 *36:42 0.000118998
*RES
1 *160:X *36:4 1.6 
2 *36:4 *154:A1 3.97 
3 *36:4 *36:19 2.445 
4 *36:19 *152:A 1.6 
5 *36:19 *36:42 17.695 
6 *36:42 *153:B 11.885 
7 *36:42 *142:C 1.6 
*END

*D_NET *37 0.00459733
*CONN
*I *142:B I *D sky130_fd_sc_hd__or4_2
*I *153:A I *D sky130_fd_sc_hd__or3_1
*I *154:B1 I *D sky130_fd_sc_hd__o21ai_1
*I *161:X O *D sky130_fd_sc_hd__buf_1
*CAP
1 *142:B 0
2 *153:A 0.00017222
3 *154:B1 0.000266239
4 *161:X 0
5 *37:33 0.000710833
6 *37:4 0.000804853
7 *153:A *39:12 2.96191e-05
8 *153:A *39:20 0.000140844
9 *154:B1 *146:A 0.000123955
10 *154:B1 *40:23 5.53249e-06
11 *37:33 *146:A 0.000149684
12 *37:33 *39:20 2.60908e-05
13 *144:B *153:A 0
14 *146:B *37:33 9.28507e-05
15 *150:A *37:33 7.11235e-06
16 *153:B *153:A 7.22521e-05
17 *153:C *153:A 0.000342721
18 *153:C *37:33 6.68849e-05
19 *155:B *154:B1 0.000116165
20 *156:A *37:33 0.000148143
21 *158:A *154:B1 0.000175109
22 *159:A *154:B1 0
23 *160:A *154:B1 2.75145e-05
24 *168:A *153:A 4.99619e-05
25 *171:A *153:A 0
26 *20:12 *37:33 4.41506e-05
27 *28:6 *154:B1 4.82863e-05
28 *28:51 *37:33 0.000398506
29 *36:42 *37:33 0.000577798
*RES
1 *161:X *37:4 1.6 
2 *37:4 *154:B1 10.865 
3 *37:4 *37:33 14.51 
4 *37:33 *153:A 9.105 
5 *37:33 *142:B 3.6 
*END

*D_NET *38 0.00423703
*CONN
*I *157:A1 I *D sky130_fd_sc_hd__a21boi_1
*I *142:A I *D sky130_fd_sc_hd__or4_2
*I *162:X O *D sky130_fd_sc_hd__clkbuf_1
*CAP
1 *157:A1 0.000319393
2 *142:A 0.000250865
3 *162:X 0.00100957
4 *38:8 0.00157983
5 *142:A *151:A 4.49498e-05
6 *157:A1 *151:A 0.000170351
7 *157:A1 *174:A 0.000201508
8 *157:A2 *157:A1 0.000163204
9 *157:B1_N *157:A1 2.30292e-05
10 *169:A *157:A1 0
11 *171:A *142:A 0.000116853
12 *171:A *157:A1 0.000357483
13 *173:A *157:A1 0
14 *19:59 *157:A1 0
*RES
1 *162:X *38:8 13.71 
2 *38:8 *142:A 7.845 
3 *38:8 *157:A1 12.675 
*END

*D_NET *39 0.00740465
*CONN
*I *144:A I *D sky130_fd_sc_hd__and2_1
*I *143:A I *D sky130_fd_sc_hd__nor2_1
*I *147:A1 I *D sky130_fd_sc_hd__o31a_1
*I *148:A I *D sky130_fd_sc_hd__or4_1
*I *163:X O *D sky130_fd_sc_hd__buf_1
*CAP
1 *144:A 0.00054619
2 *143:A 0.00013549
3 *147:A1 1.95087e-05
4 *148:A 0.000245622
5 *163:X 0.000619169
6 *39:24 0.000416875
7 *39:20 0.000516706
8 *39:12 0.00139483
9 *147:A1 *147:B1 3.50152e-06
10 *148:A *147:A2 1.19928e-05
11 *148:A *147:B1 0.000195386
12 *148:A *40:23 0.000136884
13 *39:24 *147:B1 6.31732e-05
14 *143:B *143:A 4.66108e-05
15 *144:B *144:A 0.000681023
16 *144:B *39:20 0.000140844
17 *148:D *148:A 0.000233742
18 *148:D *39:24 8.52845e-05
19 *149:A_N *148:A 8.73389e-06
20 *153:A *39:12 2.96191e-05
21 *153:A *39:20 0.000140844
22 *153:C *39:12 0.00012722
23 *157:A2 *143:A 4.66108e-05
24 *161:A *148:A 0
25 *168:A *144:A 2.26018e-05
26 *168:A *39:12 2.66586e-05
27 *19:25 *39:20 0.000203891
28 *19:29 *39:24 7.30866e-05
29 *19:59 *143:A 1.07797e-05
30 *19:59 *39:20 3.76596e-05
31 *20:12 *143:A 0.000118527
32 *25:12 *39:12 4.94457e-05
33 *28:51 *143:A 0.000308048
34 *28:51 *39:24 0.000118081
35 *36:42 *143:A 0.00016599
36 *36:42 *39:20 0.000397925
37 *37:33 *39:20 2.60908e-05
*RES
1 *163:X *39:12 9.775 
2 *39:12 *39:20 10.565 
3 *39:20 *39:24 5.21 
4 *39:24 *148:A 11.135 
5 *39:24 *147:A1 1.96 
6 *39:20 *143:A 7.98 
7 *39:12 *144:A 9.22 
*END

*D_NET *40 0.00517151
*CONN
*I *148:B I *D sky130_fd_sc_hd__or4_1
*I *146:A I *D sky130_fd_sc_hd__xnor2_1
*I *147:A2 I *D sky130_fd_sc_hd__o31a_1
*I *164:X O *D sky130_fd_sc_hd__buf_1
*CAP
1 *148:B 0
2 *146:A 0.000167325
3 *147:A2 0.000123951
4 *164:X 0.000339078
5 *40:23 0.000295136
6 *40:10 0.000590838
7 *147:A2 *147:B1 0.000380861
8 *40:10 *41:10 0.00116622
9 *40:23 *148:C 0.000195925
10 *40:23 *41:10 3.09233e-05
11 *148:A *147:A2 1.19928e-05
12 *148:A *40:23 0.000136884
13 *148:D *146:A 1.31227e-05
14 *149:A_N *147:A2 0.000304533
15 *149:A_N *40:10 0.00101341
16 *150:A *146:A 3.1835e-05
17 *151:B *146:A 2.94601e-05
18 *154:B1 *146:A 0.000123955
19 *154:B1 *40:23 5.53249e-06
20 *161:A *146:A 6.08468e-05
21 *25:12 *40:23 0
22 *37:33 *146:A 0.000149684
*RES
1 *164:X *40:10 17.415 
2 *40:10 *147:A2 7.5 
3 *40:10 *40:23 5.165 
4 *40:23 *146:A 5.785 
5 *40:23 *148:B 1.6 
*END

*D_NET *41 0.00497241
*CONN
*I *148:C I *D sky130_fd_sc_hd__or4_1
*I *147:B1 I *D sky130_fd_sc_hd__o31a_1
*I *165:X O *D sky130_fd_sc_hd__clkbuf_1
*CAP
1 *148:C 8.87125e-05
2 *147:B1 0.000131713
3 *165:X 0.00061342
4 *41:10 0.000833846
5 *147:A1 *147:B1 3.50152e-06
6 *147:A2 *147:B1 0.000380861
7 *148:A *147:B1 0.000195386
8 *148:D *148:C 7.21296e-06
9 *149:B *148:C 0.000112731
10 *149:B *41:10 0.001101
11 *19:29 *147:B1 4.77757e-05
12 *25:12 *148:C 0
13 *39:24 *147:B1 6.31732e-05
14 *40:10 *41:10 0.00116622
15 *40:23 *148:C 0.000195925
16 *40:23 *41:10 3.09233e-05
*RES
1 *165:X *41:10 22.095 
2 *41:10 *147:B1 8.205 
3 *41:10 *148:C 6 
*END

*D_NET *42 0.00521763
*CONN
*I *151:A I *D sky130_fd_sc_hd__xor2_1
*I *166:X O *D sky130_fd_sc_hd__buf_1
*CAP
1 *151:A 0.00165351
2 *166:X 0.00165351
3 *142:A *151:A 4.49498e-05
4 *157:A1 *151:A 0.000170351
5 *168:A *151:A 1.94723e-05
6 *171:A *151:A 0
7 *172:A *151:A 0.00167584
*RES
1 *166:X *151:A 37.05 
*END

*D_NET *43 0.00269925
*CONN
*I *174:A I *D sky130_fd_sc_hd__buf_2
*I *158:X O *D sky130_fd_sc_hd__clkbuf_1
*CAP
1 *174:A 0.000834375
2 *158:X 0.000834375
3 *155:A *174:A 0.000198614
4 *157:A1 *174:A 0.000201508
5 *157:A2 *174:A 0.000614195
6 *157:B1_N *174:A 1.61831e-05
*RES
1 *158:X *174:A 19.035 
*END
