*SPEF "ieee 1481-1999"
*DESIGN "ZeroToFiveCounter"
*DATE "22:11:51 Saturday May 24, 2025"
*VENDOR "The OpenROAD Project"
*PROGRAM "OpenROAD"
*VERSION "b16bda7e82721d10566ff7e2b68f1ff0be9f9e38"
*DESIGN_FLOW "NAME_SCOPE LOCAL" "PIN_CAP NONE"
*DIVIDER /
*DELIMITER :
*BUS_DELIMITER []
*T_UNIT 1 NS
*C_UNIT 1 PF
*R_UNIT 1 OHM
*L_UNIT 1 HENRY

*NAME_MAP
*1 net8
*2 net9
*3 net10
*4 net11
*5 BTNC
*6 CLK100MHZ
*9 seg[0]
*10 seg[1]
*11 seg[2]
*12 seg[3]
*13 seg[4]
*14 seg[5]
*15 seg[6]
*16 _000_
*17 _001_
*18 _002_
*19 _003_
*20 _004_
*21 _005_
*22 _006_
*23 _007_
*24 _008_
*25 _009_
*26 _010_
*27 _011_
*28 _012_
*29 _013_
*30 _014_
*31 _015_
*32 _016_
*33 _017_
*34 _018_
*35 _019_
*36 _020_
*37 _021_
*38 _022_
*39 _023_
*40 _024_
*41 _025_
*42 _026_
*43 _027_
*44 _028_
*45 _029_
*46 _030_
*47 _031_
*48 _032_
*49 _033_
*50 _034_
*51 _035_
*52 _036_
*53 _037_
*54 _038_
*55 _039_
*56 _040_
*57 _041_
*58 _042_
*59 _043_
*60 _044_
*61 _045_
*62 _046_
*63 _047_
*64 _048_
*65 _049_
*66 _050_
*67 _051_
*68 _052_
*69 _053_
*70 _054_
*71 _055_
*72 _056_
*73 _057_
*74 _058_
*75 _059_
*76 _060_
*77 _061_
*78 _062_
*79 _063_
*80 _064_
*81 _065_
*82 _066_
*83 _067_
*84 _068_
*85 _069_
*86 _070_
*87 _071_
*88 _072_
*89 _073_
*90 _074_
*91 _075_
*92 _076_
*93 _077_
*94 _078_
*95 _079_
*96 _080_
*97 _081_
*98 _082_
*99 _083_
*100 _084_
*101 _085_
*102 _086_
*103 _087_
*104 _088_
*105 _089_
*106 _090_
*107 _091_
*108 _092_
*109 _093_
*110 _094_
*111 _095_
*112 _096_
*113 _097_
*114 _098_
*115 _099_
*116 _100_
*117 _101_
*118 _102_
*119 _103_
*120 _104_
*121 _105_
*122 _106_
*123 _107_
*124 _108_
*125 _109_
*126 _110_
*127 _111_
*128 _112_
*129 _113_
*130 _114_
*131 _115_
*132 _116_
*133 _117_
*134 _118_
*135 _119_
*136 clknet_0_CLK100MHZ
*137 clknet_2_0__leaf_CLK100MHZ
*138 clknet_2_1__leaf_CLK100MHZ
*139 clknet_2_2__leaf_CLK100MHZ
*140 clknet_2_3__leaf_CLK100MHZ
*141 decoder\.count\[0\]
*142 decoder\.count\[1\]
*143 decoder\.count\[2\]
*144 decoder\.count\[3\]
*145 decoder\.delay\[0\]
*146 decoder\.delay\[10\]
*147 decoder\.delay\[11\]
*148 decoder\.delay\[12\]
*149 decoder\.delay\[13\]
*150 decoder\.delay\[14\]
*151 decoder\.delay\[15\]
*152 decoder\.delay\[16\]
*153 decoder\.delay\[17\]
*154 decoder\.delay\[18\]
*155 decoder\.delay\[19\]
*156 decoder\.delay\[1\]
*157 decoder\.delay\[20\]
*158 decoder\.delay\[21\]
*159 decoder\.delay\[22\]
*160 decoder\.delay\[23\]
*161 decoder\.delay\[24\]
*162 decoder\.delay\[2\]
*163 decoder\.delay\[3\]
*164 decoder\.delay\[4\]
*165 decoder\.delay\[5\]
*166 decoder\.delay\[6\]
*167 decoder\.delay\[7\]
*168 decoder\.delay\[8\]
*169 decoder\.delay\[9\]
*170 net1
*171 net2
*172 net3
*173 net4
*174 net5
*175 net6
*176 net7
*177 ANTENNA_1
*178 FILLER_0_0_10
*179 FILLER_0_0_100
*180 FILLER_0_0_124
*181 FILLER_0_0_22
*182 FILLER_0_0_29
*183 FILLER_0_0_3
*184 FILLER_0_0_41
*185 FILLER_0_0_48
*186 FILLER_0_0_57
*187 FILLER_0_0_69
*188 FILLER_0_0_80
*189 FILLER_0_0_88
*190 FILLER_0_10_112
*191 FILLER_0_10_12
*192 FILLER_0_10_124
*193 FILLER_0_10_23
*194 FILLER_0_10_27
*195 FILLER_0_10_29
*196 FILLER_0_10_3
*197 FILLER_0_10_41
*198 FILLER_0_10_53
*199 FILLER_0_10_65
*200 FILLER_0_10_77
*201 FILLER_0_10_83
*202 FILLER_0_10_85
*203 FILLER_0_11_105
*204 FILLER_0_11_111
*205 FILLER_0_11_113
*206 FILLER_0_11_121
*207 FILLER_0_11_18
*208 FILLER_0_11_30
*209 FILLER_0_11_42
*210 FILLER_0_11_54
*211 FILLER_0_11_57
*212 FILLER_0_11_6
*213 FILLER_0_11_69
*214 FILLER_0_11_81
*215 FILLER_0_11_93
*216 FILLER_0_12_109
*217 FILLER_0_12_121
*218 FILLER_0_12_15
*219 FILLER_0_12_27
*220 FILLER_0_12_29
*221 FILLER_0_12_3
*222 FILLER_0_12_41
*223 FILLER_0_12_53
*224 FILLER_0_12_65
*225 FILLER_0_12_77
*226 FILLER_0_12_83
*227 FILLER_0_12_85
*228 FILLER_0_12_97
*229 FILLER_0_13_105
*230 FILLER_0_13_111
*231 FILLER_0_13_123
*232 FILLER_0_13_15
*233 FILLER_0_13_27
*234 FILLER_0_13_3
*235 FILLER_0_13_39
*236 FILLER_0_13_51
*237 FILLER_0_13_55
*238 FILLER_0_13_57
*239 FILLER_0_13_65
*240 FILLER_0_13_93
*241 FILLER_0_14_107
*242 FILLER_0_14_119
*243 FILLER_0_14_15
*244 FILLER_0_14_27
*245 FILLER_0_14_3
*246 FILLER_0_14_35
*247 FILLER_0_14_47
*248 FILLER_0_14_57
*249 FILLER_0_14_69
*250 FILLER_0_14_81
*251 FILLER_0_14_85
*252 FILLER_0_14_97
*253 FILLER_0_15_110
*254 FILLER_0_15_113
*255 FILLER_0_15_15
*256 FILLER_0_15_23
*257 FILLER_0_15_3
*258 FILLER_0_15_46
*259 FILLER_0_15_77
*260 FILLER_0_15_81
*261 FILLER_0_15_86
*262 FILLER_0_15_98
*263 FILLER_0_16_109
*264 FILLER_0_16_115
*265 FILLER_0_16_119
*266 FILLER_0_16_14
*267 FILLER_0_16_26
*268 FILLER_0_16_29
*269 FILLER_0_16_41
*270 FILLER_0_16_53
*271 FILLER_0_16_6
*272 FILLER_0_16_75
*273 FILLER_0_16_83
*274 FILLER_0_16_85
*275 FILLER_0_16_97
*276 FILLER_0_17_101
*277 FILLER_0_17_105
*278 FILLER_0_17_113
*279 FILLER_0_17_29
*280 FILLER_0_17_41
*281 FILLER_0_17_53
*282 FILLER_0_17_65
*283 FILLER_0_17_74
*284 FILLER_0_17_81
*285 FILLER_0_17_93
*286 FILLER_0_18_103
*287 FILLER_0_18_15
*288 FILLER_0_18_27
*289 FILLER_0_18_29
*290 FILLER_0_18_36
*291 FILLER_0_18_63
*292 FILLER_0_18_75
*293 FILLER_0_18_83
*294 FILLER_0_18_85
*295 FILLER_0_18_97
*296 FILLER_0_19_105
*297 FILLER_0_19_111
*298 FILLER_0_19_119
*299 FILLER_0_19_16
*300 FILLER_0_19_29
*301 FILLER_0_19_3
*302 FILLER_0_19_57
*303 FILLER_0_19_69
*304 FILLER_0_19_7
*305 FILLER_0_19_81
*306 FILLER_0_19_93
*307 FILLER_0_1_108
*308 FILLER_0_1_113
*309 FILLER_0_1_38
*310 FILLER_0_1_46
*311 FILLER_0_1_54
*312 FILLER_0_1_57
*313 FILLER_0_1_66
*314 FILLER_0_1_72
*315 FILLER_0_1_84
*316 FILLER_0_1_9
*317 FILLER_0_1_96
*318 FILLER_0_20_109
*319 FILLER_0_20_121
*320 FILLER_0_20_15
*321 FILLER_0_20_27
*322 FILLER_0_20_29
*323 FILLER_0_20_3
*324 FILLER_0_20_37
*325 FILLER_0_20_45
*326 FILLER_0_20_57
*327 FILLER_0_20_69
*328 FILLER_0_20_81
*329 FILLER_0_20_85
*330 FILLER_0_20_97
*331 FILLER_0_21_101
*332 FILLER_0_21_109
*333 FILLER_0_21_113
*334 FILLER_0_21_14
*335 FILLER_0_21_20
*336 FILLER_0_21_28
*337 FILLER_0_21_3
*338 FILLER_0_21_54
*339 FILLER_0_21_57
*340 FILLER_0_21_77
*341 FILLER_0_21_89
*342 FILLER_0_22_100
*343 FILLER_0_22_110
*344 FILLER_0_22_15
*345 FILLER_0_22_22
*346 FILLER_0_22_29
*347 FILLER_0_22_3
*348 FILLER_0_22_37
*349 FILLER_0_22_59
*350 FILLER_0_22_71
*351 FILLER_0_22_83
*352 FILLER_0_22_88
*353 FILLER_0_23_106
*354 FILLER_0_23_113
*355 FILLER_0_23_3
*356 FILLER_0_23_35
*357 FILLER_0_23_45
*358 FILLER_0_23_52
*359 FILLER_0_23_57
*360 FILLER_0_23_66
*361 FILLER_0_23_94
*362 FILLER_0_24_102
*363 FILLER_0_24_123
*364 FILLER_0_24_15
*365 FILLER_0_24_27
*366 FILLER_0_24_29
*367 FILLER_0_24_3
*368 FILLER_0_24_41
*369 FILLER_0_24_53
*370 FILLER_0_24_82
*371 FILLER_0_24_85
*372 FILLER_0_24_97
*373 FILLER_0_25_12
*374 FILLER_0_25_120
*375 FILLER_0_25_124
*376 FILLER_0_25_24
*377 FILLER_0_25_3
*378 FILLER_0_25_36
*379 FILLER_0_25_41
*380 FILLER_0_25_53
*381 FILLER_0_25_57
*382 FILLER_0_26_122
*383 FILLER_0_26_24
*384 FILLER_0_26_29
*385 FILLER_0_26_3
*386 FILLER_0_26_41
*387 FILLER_0_26_73
*388 FILLER_0_26_81
*389 FILLER_0_26_85
*390 FILLER_0_26_9
*391 FILLER_0_26_93
*392 FILLER_0_26_97
*393 FILLER_0_27_108
*394 FILLER_0_27_117
*395 FILLER_0_27_121
*396 FILLER_0_27_15
*397 FILLER_0_27_26
*398 FILLER_0_27_3
*399 FILLER_0_27_38
*400 FILLER_0_27_48
*401 FILLER_0_27_57
*402 FILLER_0_27_63
*403 FILLER_0_27_69
*404 FILLER_0_27_81
*405 FILLER_0_28_119
*406 FILLER_0_28_17
*407 FILLER_0_28_25
*408 FILLER_0_28_29
*409 FILLER_0_28_3
*410 FILLER_0_28_37
*411 FILLER_0_28_59
*412 FILLER_0_28_65
*413 FILLER_0_28_71
*414 FILLER_0_28_83
*415 FILLER_0_28_85
*416 FILLER_0_28_9
*417 FILLER_0_28_93
*418 FILLER_0_29_107
*419 FILLER_0_29_111
*420 FILLER_0_29_113
*421 FILLER_0_29_15
*422 FILLER_0_29_27
*423 FILLER_0_29_3
*424 FILLER_0_29_33
*425 FILLER_0_29_44
*426 FILLER_0_29_57
*427 FILLER_0_29_69
*428 FILLER_0_29_82
*429 FILLER_0_29_90
*430 FILLER_0_29_95
*431 FILLER_0_2_119
*432 FILLER_0_2_15
*433 FILLER_0_2_27
*434 FILLER_0_2_29
*435 FILLER_0_2_3
*436 FILLER_0_2_40
*437 FILLER_0_2_44
*438 FILLER_0_2_53
*439 FILLER_0_2_62
*440 FILLER_0_2_69
*441 FILLER_0_2_7
*442 FILLER_0_2_81
*443 FILLER_0_2_85
*444 FILLER_0_2_91
*445 FILLER_0_2_97
*446 FILLER_0_30_111
*447 FILLER_0_30_119
*448 FILLER_0_30_15
*449 FILLER_0_30_27
*450 FILLER_0_30_29
*451 FILLER_0_30_3
*452 FILLER_0_30_37
*453 FILLER_0_30_60
*454 FILLER_0_30_72
*455 FILLER_0_30_85
*456 FILLER_0_30_93
*457 FILLER_0_30_99
*458 FILLER_0_31_109
*459 FILLER_0_31_113
*460 FILLER_0_31_121
*461 FILLER_0_31_15
*462 FILLER_0_31_19
*463 FILLER_0_31_27
*464 FILLER_0_31_29
*465 FILLER_0_31_3
*466 FILLER_0_31_41
*467 FILLER_0_31_53
*468 FILLER_0_31_57
*469 FILLER_0_31_69
*470 FILLER_0_31_81
*471 FILLER_0_31_85
*472 FILLER_0_31_97
*473 FILLER_0_3_111
*474 FILLER_0_3_113
*475 FILLER_0_3_12
*476 FILLER_0_3_121
*477 FILLER_0_3_24
*478 FILLER_0_3_3
*479 FILLER_0_3_34
*480 FILLER_0_3_48
*481 FILLER_0_3_57
*482 FILLER_0_3_68
*483 FILLER_0_3_87
*484 FILLER_0_3_99
*485 FILLER_0_4_102
*486 FILLER_0_4_106
*487 FILLER_0_4_11
*488 FILLER_0_4_123
*489 FILLER_0_4_16
*490 FILLER_0_4_29
*491 FILLER_0_4_3
*492 FILLER_0_4_41
*493 FILLER_0_4_61
*494 FILLER_0_4_85
*495 FILLER_0_4_93
*496 FILLER_0_5_105
*497 FILLER_0_5_111
*498 FILLER_0_5_113
*499 FILLER_0_5_121
*500 FILLER_0_5_23
*501 FILLER_0_5_53
*502 FILLER_0_5_57
*503 FILLER_0_5_63
*504 FILLER_0_5_69
*505 FILLER_0_5_81
*506 FILLER_0_5_93
*507 FILLER_0_6_106
*508 FILLER_0_6_115
*509 FILLER_0_6_123
*510 FILLER_0_6_18
*511 FILLER_0_6_26
*512 FILLER_0_6_29
*513 FILLER_0_6_35
*514 FILLER_0_6_57
*515 FILLER_0_6_6
*516 FILLER_0_6_83
*517 FILLER_0_7_10
*518 FILLER_0_7_108
*519 FILLER_0_7_113
*520 FILLER_0_7_16
*521 FILLER_0_7_22
*522 FILLER_0_7_3
*523 FILLER_0_7_49
*524 FILLER_0_7_55
*525 FILLER_0_7_57
*526 FILLER_0_7_63
*527 FILLER_0_7_96
*528 FILLER_0_8_106
*529 FILLER_0_8_115
*530 FILLER_0_8_123
*531 FILLER_0_8_19
*532 FILLER_0_8_24
*533 FILLER_0_8_3
*534 FILLER_0_8_35
*535 FILLER_0_8_43
*536 FILLER_0_8_55
*537 FILLER_0_8_67
*538 FILLER_0_8_7
*539 FILLER_0_8_79
*540 FILLER_0_8_83
*541 FILLER_0_8_85
*542 FILLER_0_8_97
*543 FILLER_0_9_111
*544 FILLER_0_9_113
*545 FILLER_0_9_3
*546 FILLER_0_9_34
*547 FILLER_0_9_57
*548 FILLER_0_9_70
*549 FILLER_0_9_91
*550 FILLER_0_9_99
*551 PHY_EDGE_ROW_0_Left_32
*552 PHY_EDGE_ROW_0_Right_0
*553 PHY_EDGE_ROW_10_Left_42
*554 PHY_EDGE_ROW_10_Right_10
*555 PHY_EDGE_ROW_11_Left_43
*556 PHY_EDGE_ROW_11_Right_11
*557 PHY_EDGE_ROW_12_Left_44
*558 PHY_EDGE_ROW_12_Right_12
*559 PHY_EDGE_ROW_13_Left_45
*560 PHY_EDGE_ROW_13_Right_13
*561 PHY_EDGE_ROW_14_Left_46
*562 PHY_EDGE_ROW_14_Right_14
*563 PHY_EDGE_ROW_15_Left_47
*564 PHY_EDGE_ROW_15_Right_15
*565 PHY_EDGE_ROW_16_Left_48
*566 PHY_EDGE_ROW_16_Right_16
*567 PHY_EDGE_ROW_17_Left_49
*568 PHY_EDGE_ROW_17_Right_17
*569 PHY_EDGE_ROW_18_Left_50
*570 PHY_EDGE_ROW_18_Right_18
*571 PHY_EDGE_ROW_19_Left_51
*572 PHY_EDGE_ROW_19_Right_19
*573 PHY_EDGE_ROW_1_Left_33
*574 PHY_EDGE_ROW_1_Right_1
*575 PHY_EDGE_ROW_20_Left_52
*576 PHY_EDGE_ROW_20_Right_20
*577 PHY_EDGE_ROW_21_Left_53
*578 PHY_EDGE_ROW_21_Right_21
*579 PHY_EDGE_ROW_22_Left_54
*580 PHY_EDGE_ROW_22_Right_22
*581 PHY_EDGE_ROW_23_Left_55
*582 PHY_EDGE_ROW_23_Right_23
*583 PHY_EDGE_ROW_24_Left_56
*584 PHY_EDGE_ROW_24_Right_24
*585 PHY_EDGE_ROW_25_Left_57
*586 PHY_EDGE_ROW_25_Right_25
*587 PHY_EDGE_ROW_26_Left_58
*588 PHY_EDGE_ROW_26_Right_26
*589 PHY_EDGE_ROW_27_Left_59
*590 PHY_EDGE_ROW_27_Right_27
*591 PHY_EDGE_ROW_28_Left_60
*592 PHY_EDGE_ROW_28_Right_28
*593 PHY_EDGE_ROW_29_Left_61
*594 PHY_EDGE_ROW_29_Right_29
*595 PHY_EDGE_ROW_2_Left_34
*596 PHY_EDGE_ROW_2_Right_2
*597 PHY_EDGE_ROW_30_Left_62
*598 PHY_EDGE_ROW_30_Right_30
*599 PHY_EDGE_ROW_31_Left_63
*600 PHY_EDGE_ROW_31_Right_31
*601 PHY_EDGE_ROW_3_Left_35
*602 PHY_EDGE_ROW_3_Right_3
*603 PHY_EDGE_ROW_4_Left_36
*604 PHY_EDGE_ROW_4_Right_4
*605 PHY_EDGE_ROW_5_Left_37
*606 PHY_EDGE_ROW_5_Right_5
*607 PHY_EDGE_ROW_6_Left_38
*608 PHY_EDGE_ROW_6_Right_6
*609 PHY_EDGE_ROW_7_Left_39
*610 PHY_EDGE_ROW_7_Right_7
*611 PHY_EDGE_ROW_8_Left_40
*612 PHY_EDGE_ROW_8_Right_8
*613 PHY_EDGE_ROW_9_Left_41
*614 PHY_EDGE_ROW_9_Right_9
*615 TAP_TAPCELL_ROW_0_64
*616 TAP_TAPCELL_ROW_0_65
*617 TAP_TAPCELL_ROW_0_66
*618 TAP_TAPCELL_ROW_0_67
*619 TAP_TAPCELL_ROW_10_86
*620 TAP_TAPCELL_ROW_10_87
*621 TAP_TAPCELL_ROW_11_88
*622 TAP_TAPCELL_ROW_11_89
*623 TAP_TAPCELL_ROW_12_90
*624 TAP_TAPCELL_ROW_12_91
*625 TAP_TAPCELL_ROW_13_92
*626 TAP_TAPCELL_ROW_13_93
*627 TAP_TAPCELL_ROW_14_94
*628 TAP_TAPCELL_ROW_14_95
*629 TAP_TAPCELL_ROW_15_96
*630 TAP_TAPCELL_ROW_15_97
*631 TAP_TAPCELL_ROW_16_98
*632 TAP_TAPCELL_ROW_16_99
*633 TAP_TAPCELL_ROW_17_100
*634 TAP_TAPCELL_ROW_17_101
*635 TAP_TAPCELL_ROW_18_102
*636 TAP_TAPCELL_ROW_18_103
*637 TAP_TAPCELL_ROW_19_104
*638 TAP_TAPCELL_ROW_19_105
*639 TAP_TAPCELL_ROW_1_68
*640 TAP_TAPCELL_ROW_1_69
*641 TAP_TAPCELL_ROW_20_106
*642 TAP_TAPCELL_ROW_20_107
*643 TAP_TAPCELL_ROW_21_108
*644 TAP_TAPCELL_ROW_21_109
*645 TAP_TAPCELL_ROW_22_110
*646 TAP_TAPCELL_ROW_22_111
*647 TAP_TAPCELL_ROW_23_112
*648 TAP_TAPCELL_ROW_23_113
*649 TAP_TAPCELL_ROW_24_114
*650 TAP_TAPCELL_ROW_24_115
*651 TAP_TAPCELL_ROW_25_116
*652 TAP_TAPCELL_ROW_25_117
*653 TAP_TAPCELL_ROW_26_118
*654 TAP_TAPCELL_ROW_26_119
*655 TAP_TAPCELL_ROW_27_120
*656 TAP_TAPCELL_ROW_27_121
*657 TAP_TAPCELL_ROW_28_122
*658 TAP_TAPCELL_ROW_28_123
*659 TAP_TAPCELL_ROW_29_124
*660 TAP_TAPCELL_ROW_29_125
*661 TAP_TAPCELL_ROW_2_70
*662 TAP_TAPCELL_ROW_2_71
*663 TAP_TAPCELL_ROW_30_126
*664 TAP_TAPCELL_ROW_30_127
*665 TAP_TAPCELL_ROW_31_128
*666 TAP_TAPCELL_ROW_31_129
*667 TAP_TAPCELL_ROW_31_130
*668 TAP_TAPCELL_ROW_31_131
*669 TAP_TAPCELL_ROW_3_72
*670 TAP_TAPCELL_ROW_3_73
*671 TAP_TAPCELL_ROW_4_74
*672 TAP_TAPCELL_ROW_4_75
*673 TAP_TAPCELL_ROW_5_76
*674 TAP_TAPCELL_ROW_5_77
*675 TAP_TAPCELL_ROW_6_78
*676 TAP_TAPCELL_ROW_6_79
*677 TAP_TAPCELL_ROW_7_80
*678 TAP_TAPCELL_ROW_7_81
*679 TAP_TAPCELL_ROW_8_82
*680 TAP_TAPCELL_ROW_8_83
*681 TAP_TAPCELL_ROW_9_84
*682 TAP_TAPCELL_ROW_9_85
*683 ZeroToFiveCounter_10
*684 ZeroToFiveCounter_11
*685 ZeroToFiveCounter_8
*686 ZeroToFiveCounter_9
*687 _120_
*688 _121_
*689 _122_
*690 _123_
*691 _124_
*692 _125_
*693 _126_
*694 _127_
*695 _128_
*696 _129_
*697 _130_
*698 _131_
*699 _132_
*700 _133_
*701 _134_
*702 _135_
*703 _136_
*704 _137_
*705 _138_
*706 _139_
*707 _140_
*708 _141_
*709 _142_
*710 _143_
*711 _144_
*712 _145_
*713 _146_
*714 _147_
*715 _148_
*716 _149_
*717 _150_
*718 _151_
*719 _152_
*720 _153_
*721 _154_
*722 _155_
*723 _156_
*724 _157_
*725 _158_
*726 _159_
*727 _160_
*728 _161_
*729 _162_
*730 _163_
*731 _164_
*732 _165_
*733 _166_
*734 _167_
*735 _168_
*736 _169_
*737 _170_
*738 _171_
*739 _172_
*740 _173_
*741 _174_
*742 _175_
*743 _176_
*744 _177_
*745 _178_
*746 _179_
*747 _180_
*748 _181_
*749 _182_
*750 _183_
*751 _184_
*752 _185_
*753 _186_
*754 _187_
*755 _188_
*756 _189_
*757 _190_
*758 _191_
*759 _192_
*760 _193_
*761 _194_
*762 _195_
*763 _196_
*764 _197_
*765 _198_
*766 _199_
*767 _200_
*768 _201_
*769 _202_
*770 _203_
*771 _204_
*772 _205_
*773 _206_
*774 _207_
*775 _208_
*776 _209_
*777 _210_
*778 _211_
*779 _212_
*780 _213_
*781 _214_
*782 _215_
*783 _216_
*784 _217_
*785 _218_
*786 _219_
*787 _220_
*788 _221_
*789 _222_
*790 _223_
*791 _224_
*792 _225_
*793 _226_
*794 _227_
*795 _228_
*796 _229_
*797 _230_
*798 _231_
*799 _232_
*800 _233_
*801 _234_
*802 _235_
*803 _236_
*804 _237_
*805 _238_
*806 _239_
*807 _240_
*808 _241_
*809 _242_
*810 _243_
*811 _244_
*812 _245_
*813 _246_
*814 _247_
*815 _248_
*816 _249_
*817 _250_
*818 _251_
*819 _252_
*820 _253_
*821 _254_
*822 _255_
*823 _256_
*824 _257_
*825 _258_
*826 _259_
*827 _260_
*828 _261_
*829 _262_
*830 _263_
*831 _264_
*832 _265_
*833 _266_
*834 _267_
*835 _268_
*836 _269_
*837 _270_
*838 _271_
*839 _272_
*840 _273_
*841 _274_
*842 _279_
*843 clkbuf_0_CLK100MHZ
*844 clkbuf_2_0__f_CLK100MHZ
*845 clkbuf_2_1__f_CLK100MHZ
*846 clkbuf_2_2__f_CLK100MHZ
*847 clkbuf_2_3__f_CLK100MHZ
*848 clkload0
*849 clkload1
*850 clkload2
*851 output1
*852 output2
*853 output3
*854 output4
*855 output5
*856 output6
*857 output7

*PORTS
AN[0] O
AN[1] O
AN[2] O
AN[3] O
BTNC I
CLK100MHZ I
seg[0] O
seg[1] O
seg[2] O
seg[3] O
seg[4] O
seg[5] O
seg[6] O

*D_NET *1 0.000837286
*CONN
*P AN[0] O
*I *685:LO O *D sky130_fd_sc_hd__conb_1
*CAP
1 AN[0] 0.000366483
2 *685:LO 0.000366483
3 AN[0] seg[6] 0.00010432
4 AN[0] *95:8 0
*RES
1 *685:LO AN[0] 10.455 
*END

*D_NET *2 0.00088855
*CONN
*P AN[1] O
*I *686:HI O *D sky130_fd_sc_hd__conb_1
*CAP
1 AN[1] 0.000418899
2 *686:HI 0.000418899
3 AN[1] *722:B 5.0751e-05
*RES
1 *686:HI AN[1] 10.53 
*END

*D_NET *3 0.000753277
*CONN
*P AN[2] O
*I *683:HI O *D sky130_fd_sc_hd__conb_1
*CAP
1 AN[2] 0.000369439
2 *683:HI 0.000369439
3 AN[2] *857:A 1.4399e-05
*RES
1 *683:HI AN[2] 9.84 
*END

*D_NET *4 0.000753277
*CONN
*P AN[3] O
*I *684:HI O *D sky130_fd_sc_hd__conb_1
*CAP
1 AN[3] 0.000369439
2 *684:HI 0.000369439
3 AN[3] *857:A 1.4399e-05
*RES
1 *684:HI AN[3] 9.84 
*END

*D_NET *5 0.0142947
*CONN
*P BTNC I
*I *781:A I *D sky130_fd_sc_hd__buf_4
*I *793:A I *D sky130_fd_sc_hd__buf_4
*CAP
1 BTNC 0.00324888
2 *781:A 0.000154519
3 *793:A 0.000277398
4 *5:13 0.00368079
5 *781:A *128:8 0.000301899
6 *793:A *707:A 0.000119227
7 *793:A *764:B 0.000905274
8 *793:A *130:78 4.94457e-05
9 *793:A *130:101 0.000354901
10 *793:A *141:79 0.000134798
11 *793:A *144:66 4.77757e-05
12 *5:13 *690:A 0
13 *5:13 *693:C 9.95261e-05
14 *5:13 *706:B 0.00019936
15 *5:13 *707:A 2.592e-05
16 *5:13 *715:A 0
17 *5:13 *764:B 0.000173065
18 *5:13 *779:B 0.0017756
19 *5:13 *819:RESET_B 2.89842e-05
20 *5:13 *836:RESET_B 0
21 *5:13 *128:105 0.000100522
22 *5:13 *130:101 0.000731752
23 *5:13 *134:31 0.000795929
24 *5:13 *152:67 0.000241737
25 *5:13 *161:21 5.5391e-05
26 *5:13 *162:12 9.40207e-05
27 *5:13 *165:48 1.87327e-05
28 *5:13 *168:52 0.000546888
29 *5:13 *168:60 0.000132363
*RES
1 BTNC *5:13 19.6782 
2 *5:13 *793:A 14.61 
3 *5:13 *781:A 6.465 
*END

*D_NET *6 0.00987048
*CONN
*P CLK100MHZ I
*I *843:A I *D sky130_fd_sc_hd__clkbuf_16
*CAP
1 CLK100MHZ 0.00326019
2 *843:A 0.00326019
3 *843:A *701:A 8.19843e-05
4 *843:A *731:A2 6.84147e-05
5 *843:A *733:B 1.00941e-05
6 *843:A *737:A 0
7 *843:A *756:A_N 0.00121916
8 *843:A *764:A_N 7.18557e-05
9 *843:A *768:B 1.88602e-05
10 *843:A *771:A1_N 1.79329e-05
11 *843:A *817:RESET_B 0
12 *843:A *18:20 3.0337e-05
13 *843:A *114:26 0.00183146
*RES
1 CLK100MHZ *843:A 12.9806 
*END

*D_NET *9 0.000667331
*CONN
*P seg[0] O
*I *851:X O *D sky130_fd_sc_hd__buf_1
*CAP
1 seg[0] 0.000333665
2 *851:X 0.000333665
*RES
1 *851:X seg[0] 6.37677 
*END

*D_NET *10 0.000586705
*CONN
*P seg[1] O
*I *852:X O *D sky130_fd_sc_hd__buf_1
*CAP
1 seg[1] 0.00028307
2 *852:X 0.00028307
3 seg[1] *759:A 2.05641e-05
*RES
1 *852:X seg[1] 4.84677 
*END

*D_NET *11 0.000791589
*CONN
*P seg[2] O
*I *853:X O *D sky130_fd_sc_hd__buf_1
*CAP
1 seg[2] 0.000344013
2 *853:X 0.000344013
3 seg[2] *64:16 0
4 seg[2] *147:14 0.000103563
*RES
1 *853:X seg[2] 5.86677 
*END

*D_NET *12 0.000616867
*CONN
*P seg[3] O
*I *854:X O *D sky130_fd_sc_hd__buf_1
*CAP
1 seg[3] 0.000279322
2 *854:X 0.000279322
3 seg[3] *39:10 5.82237e-05
4 seg[3] *64:16 0
*RES
1 *854:X seg[3] 7.40543 
*END

*D_NET *13 0.000801176
*CONN
*P seg[4] O
*I *855:X O *D sky130_fd_sc_hd__buf_1
*CAP
1 seg[4] 0.000337075
2 *855:X 0.000337075
3 seg[4] *39:10 0
4 seg[4] *64:16 0.000127025
*RES
1 *855:X seg[4] 6.12177 
*END

*D_NET *14 0.000613667
*CONN
*P seg[5] O
*I *856:X O *D sky130_fd_sc_hd__buf_1
*CAP
1 seg[5] 0.000287119
2 *856:X 0.000287119
3 seg[5] *835:RESET_B 1.88656e-05
4 seg[5] *64:16 2.05641e-05
*RES
1 *856:X seg[5] 4.84677 
*END

*D_NET *15 0.000848898
*CONN
*P seg[6] O
*I *857:X O *D sky130_fd_sc_hd__buf_1
*CAP
1 seg[6] 0.000372289
2 *857:X 0.000372289
3 seg[6] *95:8 0
4 AN[0] seg[6] 0.00010432
*RES
1 *857:X seg[6] 6.09983 
*END

*D_NET *16 0.00141064
*CONN
*I *817:D I *D sky130_fd_sc_hd__dfrtp_2
*I *732:Y O *D sky130_fd_sc_hd__inv_2
*CAP
1 *817:D 0.000411442
2 *732:Y 0.000411442
3 *817:D *704:A3 3.25831e-05
4 *817:D *709:B1 0.000258503
5 *817:D *715:B 6.16226e-06
6 *817:D *725:A2 0
7 *817:D *770:C 1.38495e-05
8 *817:D *830:RESET_B 3.50539e-05
9 *817:D *842:A 0
10 *817:D *75:56 4.1269e-05
11 *817:D *77:14 3.97748e-05
12 *817:D *77:22 2.46173e-05
13 *817:D *83:18 2.28347e-05
14 *817:D *165:48 0.000113104
*RES
1 *732:Y *817:D 15.24 
*END

*D_NET *17 0.000955708
*CONN
*I *827:D I *D sky130_fd_sc_hd__dfrtp_1
*I *761:Y O *D sky130_fd_sc_hd__a21boi_1
*CAP
1 *827:D 0.000284307
2 *761:Y 0.000284307
3 *827:D *761:A2 8.35106e-05
4 *827:D *778:B 3.62086e-05
5 *827:D *810:A 2.01504e-05
6 *827:D *827:RESET_B 4.26581e-05
7 *827:D *96:12 0.000145643
8 *827:D *146:53 5.89229e-05
*RES
1 *761:Y *827:D 12.24 
*END

*D_NET *18 0.0127395
*CONN
*I *828:D I *D sky130_fd_sc_hd__dfrtp_1
*I *177:DIODE I *D sky130_fd_sc_hd__diode_2
*I *765:X O *D sky130_fd_sc_hd__buf_1
*CAP
1 *828:D 0.00023798
2 *177:DIODE 0
3 *765:X 0.00320994
4 *18:20 0.00344792
5 *828:D *828:CLK 0.000153816
6 *828:D *22:14 4.63725e-05
7 *828:D *121:12 9.39714e-05
8 *18:20 *711:A 0.000189253
9 *18:20 *740:A 0.000726095
10 *18:20 *764:A_N 0
11 *18:20 *765:A 2.68037e-05
12 *18:20 *780:B1 0.000573597
13 *18:20 *818:D 0.00166494
14 *18:20 *822:D 0.000369631
15 *18:20 *823:CLK 5.44006e-05
16 *18:20 *833:D 0.000260774
17 *18:20 *22:14 5.46811e-05
18 *18:20 *89:8 6.91307e-05
19 *18:20 *121:12 0.00010355
20 *18:20 *129:68 0.00088981
21 *18:20 *131:20 0.000340429
22 *18:20 *137:66 0.000115669
23 *18:20 *137:70 5.36871e-05
24 *18:20 *149:24 2.67348e-05
25 *18:20 *166:22 0
26 *843:A *18:20 3.0337e-05
*RES
1 *765:X *18:20 43.4988 
2 *18:20 *177:DIODE 3.6 
3 *18:20 *828:D 7.71 
*END

*D_NET *19 0.00348294
*CONN
*I *829:D I *D sky130_fd_sc_hd__dfrtp_2
*I *766:Y O *D sky130_fd_sc_hd__xnor2_1
*CAP
1 *829:D 0.000832358
2 *766:Y 0.000832358
3 *829:D *696:C 0.00033717
4 *829:D *704:A2 8.86092e-05
5 *829:D *752:A_N 0
6 *829:D *755:A 0
7 *829:D *755:B 1.92979e-05
8 *829:D *762:B1 9.51114e-05
9 *829:D *768:C 4.77719e-05
10 *829:D *779:A 0.000146033
11 *829:D *798:A 0.000241037
12 *829:D *130:107 7.06865e-05
13 *829:D *132:56 5.66369e-05
14 *829:D *135:22 0.000446729
15 *829:D *148:22 0.000269142
*RES
1 *766:Y *829:D 27.135 
*END

*D_NET *20 0.00879735
*CONN
*I *830:D I *D sky130_fd_sc_hd__dfrtp_1
*I *769:X O *D sky130_fd_sc_hd__o21ba_1
*CAP
1 *830:D 0.00236039
2 *769:X 0.00236039
3 *830:D *738:A2 0.000808914
4 *830:D *772:A1 0.00128368
5 *830:D *61:24 0.000531104
6 *830:D *68:20 6.90254e-05
7 *830:D *140:10 0.000456141
8 *830:D *159:23 0.000745962
9 *830:D *168:60 2.35435e-05
10 *830:D *168:82 0.000158194
*RES
1 *769:X *830:D 47.3025 
*END

*D_NET *21 0.00487394
*CONN
*I *831:D I *D sky130_fd_sc_hd__dfrtp_1
*I *771:X O *D sky130_fd_sc_hd__o2bb2a_1
*CAP
1 *831:D 0.00122285
2 *771:X 0.00122285
3 *831:D *694:C 5.74866e-05
4 *831:D *698:A2 0.000283217
5 *831:D *710:A2 9.82762e-05
6 *831:D *720:A 7.06865e-05
7 *831:D *768:C 0.000700752
8 *831:D *771:A1_N 8.3512e-05
9 *831:D *771:B2 8.40213e-05
10 *831:D *95:37 0.000667883
11 *831:D *97:16 7.24846e-05
12 *831:D *110:126 0.000276003
13 *831:D *149:24 0
14 *831:D *165:21 3.39228e-05
*RES
1 *771:X *831:D 20.6591 
*END

*D_NET *22 0.00908205
*CONN
*I *832:D I *D sky130_fd_sc_hd__dfrtp_1
*I *773:Y O *D sky130_fd_sc_hd__nor2_1
*CAP
1 *832:D 0.000424328
2 *773:Y 0.00127588
3 *22:14 0.0017002
4 *832:D *739:A_N 0.000129169
5 *832:D *794:A 4.41506e-05
6 *832:D *797:A 9.66106e-05
7 *832:D *832:CLK 8.58007e-05
8 *22:14 *716:A2_N 2.15594e-05
9 *22:14 *739:B 0.00147069
10 *22:14 *740:A 0.000305462
11 *22:14 *814:D 0.000166171
12 *22:14 *82:141 6.26852e-05
13 *22:14 *83:18 0.000778387
14 *22:14 *121:12 0.000746188
15 *22:14 *128:18 0.00138169
16 *22:14 *128:22 0.000201407
17 *22:14 *130:14 0
18 *22:14 *130:18 0
19 *22:14 *134:25 9.06149e-05
20 *828:D *22:14 4.63725e-05
21 *18:20 *22:14 5.46811e-05
*RES
1 *773:Y *22:14 46.04 
2 *22:14 *832:D 8.725 
*END

*D_NET *23 0.00197637
*CONN
*I *833:D I *D sky130_fd_sc_hd__dfrtp_2
*I *774:X O *D sky130_fd_sc_hd__xor2_1
*CAP
1 *833:D 0.000321169
2 *774:X 0.000321169
3 *833:D *711:A 0.000685723
4 *833:D *774:B 4.84629e-05
5 *833:D *131:20 0.000339073
6 *18:20 *833:D 0.000260774
*RES
1 *774:X *833:D 17.25 
*END

*D_NET *24 0.00550507
*CONN
*I *834:D I *D sky130_fd_sc_hd__dfrtp_1
*I *777:Y O *D sky130_fd_sc_hd__nor2_1
*CAP
1 *834:D 0.000963926
2 *777:Y 0.000963926
3 *834:D *693:A 0
4 *834:D *714:A1 0.000508641
5 *834:D *749:A 2.75229e-05
6 *834:D *761:A1 0.000111199
7 *834:D *767:A 0
8 *834:D *820:RESET_B 0.000419983
9 *834:D *834:RESET_B 7.18941e-05
10 *834:D *840:CLK 1.9006e-05
11 *834:D *43:38 0.000521438
12 *834:D *91:40 0
13 *834:D *126:32 0.00172741
14 *834:D *128:115 0.000136658
15 *834:D *136:32 0
16 *834:D *153:33 1.19928e-05
17 *834:D *163:24 2.14773e-05
*RES
1 *777:Y *834:D 34.56 
*END

*D_NET *25 0.00123238
*CONN
*I *835:D I *D sky130_fd_sc_hd__dfrtp_2
*I *778:X O *D sky130_fd_sc_hd__xor2_1
*CAP
1 *835:D 0.000271821
2 *778:X 0.000271821
3 *835:D *719:A 6.98266e-05
4 *835:D *794:A 0
5 *835:D *824:D 0.000504331
6 *835:D *838:RESET_B 0
7 *835:D *856:A 2.99026e-05
8 *835:D *169:16 8.46818e-05
*RES
1 *778:X *835:D 13.965 
*END

*D_NET *26 0.00497866
*CONN
*I *836:D I *D sky130_fd_sc_hd__dfrtp_1
*I *780:X O *D sky130_fd_sc_hd__o2bb2a_1
*CAP
1 *836:D 0.000933979
2 *780:X 0.000933979
3 *836:D *692:A 1.73877e-05
4 *836:D *692:D 1.42565e-05
5 *836:D *699:C_N 0.000119756
6 *836:D *704:A1 0.000386895
7 *836:D *704:B1 0.00019242
8 *836:D *715:C 3.79595e-05
9 *836:D *762:B1 0.000204928
10 *836:D *764:A_N 2.05641e-05
11 *836:D *790:A 0.000323481
12 *836:D *813:D 0.000753282
13 *836:D *836:CLK 0.000207619
14 *836:D *836:RESET_B 2.46073e-05
15 *836:D *149:8 0.000168944
16 *836:D *149:24 9.34171e-06
17 *836:D *155:14 5.83121e-06
18 *836:D *166:63 0.000116158
19 *836:D *168:82 7.75274e-05
20 *836:D *172:18 0.000429743
*RES
1 *780:X *836:D 32.22 
*END

*D_NET *27 0.00600722
*CONN
*I *818:D I *D sky130_fd_sc_hd__dfrtp_2
*I *736:X O *D sky130_fd_sc_hd__clkbuf_1
*CAP
1 *818:D 0.000987654
2 *736:X 0.000987654
3 *818:D *692:D 8.78643e-05
4 *818:D *780:B1 0.000208903
5 *818:D *815:RESET_B 0.000189751
6 *818:D *137:64 6.84056e-05
7 *818:D *137:66 4.79946e-05
8 *818:D *143:26 4.73404e-05
9 *818:D *143:90 9.76407e-06
10 *818:D *149:24 0.000102302
11 *818:D *150:10 0.00160464
12 *18:20 *818:D 0.00166494
*RES
1 *736:X *818:D 34.785 
*END

*D_NET *28 0.00704304
*CONN
*I *837:D I *D sky130_fd_sc_hd__dfrtp_1
*I *712:Y O *D sky130_fd_sc_hd__nor2_1
*CAP
1 *837:D 0.00152442
2 *712:Y 0.00152442
3 *837:D *695:D 0.00125716
4 *837:D *730:A 2.65814e-06
5 *837:D *838:D 0
6 *837:D *33:16 0.000414435
7 *837:D *106:26 0.000256998
8 *837:D *106:50 0.000417857
9 *837:D *142:58 0.000616256
10 *837:D *143:34 1.252e-05
11 *837:D *164:87 0.00077256
12 *837:D *175:10 0.000243744
*RES
1 *712:Y *837:D 42.12 
*END

*D_NET *29 0.0137682
*CONN
*I *838:D I *D sky130_fd_sc_hd__dfrtp_1
*I *714:X O *D sky130_fd_sc_hd__o21ba_1
*CAP
1 *838:D 0.000826724
2 *714:X 0.00224924
3 *29:18 0.00307597
4 *838:D *695:D 0
5 *838:D *819:RESET_B 0.00249809
6 *838:D *838:CLK 3.96284e-05
7 *838:D *33:16 0
8 *838:D *33:18 0.000221041
9 *838:D *131:20 0
10 *838:D *131:26 0.00270582
11 *838:D *142:58 0
12 *29:18 *715:A 0.000372972
13 *29:18 *715:C 0.000304063
14 *29:18 *754:B 4.66108e-05
15 *29:18 *830:CLK 8.41384e-05
16 *29:18 *830:RESET_B 9.68316e-05
17 *29:18 *91:40 8.81358e-05
18 *29:18 *168:60 0.000852363
19 *29:18 *168:82 0.000306601
20 *837:D *838:D 0
*RES
1 *714:X *29:18 35.695 
2 *29:18 *838:D 40.74 
*END

*D_NET *30 0.0014765
*CONN
*I *839:D I *D sky130_fd_sc_hd__dfrtp_1
*I *716:X O *D sky130_fd_sc_hd__o2bb2a_1
*CAP
1 *839:D 0.000511264
2 *716:X 0.000511264
3 *839:D *716:A1_N 4.18147e-05
4 *839:D *821:RESET_B 0.000100539
5 *839:D *826:RESET_B 2.60986e-05
6 *839:D *831:RESET_B 2.96334e-05
7 *839:D *839:CLK 6.86863e-05
8 *839:D *128:54 0.000181369
9 *839:D *159:10 5.83121e-06
*RES
1 *716:X *839:D 16.17 
*END

*D_NET *31 0.0105328
*CONN
*I *840:D I *D sky130_fd_sc_hd__dfrtp_1
*I *720:X O *D sky130_fd_sc_hd__buf_1
*CAP
1 *840:D 0.00122675
2 *720:X 0.00128924
3 *31:20 0.00251599
4 *840:D *693:B 5.12107e-05
5 *840:D *785:A 9.18707e-05
6 *840:D *798:A 0.000120655
7 *840:D *812:A 0.000231791
8 *840:D *55:22 6.29288e-05
9 *840:D *128:115 8.35068e-05
10 *840:D *133:30 0.000526566
11 *31:20 *693:B 0.00013978
12 *31:20 *715:C 3.10059e-05
13 *31:20 *725:A2 1.01155e-05
14 *31:20 *725:D1 0.000336367
15 *31:20 *746:B 0.000157932
16 *31:20 *842:A 0.000236126
17 *31:20 *106:26 0.0011666
18 *31:20 *106:50 0.00060832
19 *31:20 *142:45 0
20 *31:20 *143:34 0.000132821
21 *31:20 *144:87 0.000341552
22 *31:20 *164:87 0.00117164
*RES
1 *720:X *31:20 41.5775 
2 *31:20 *840:D 21.1975 
*END

*D_NET *32 0.00630389
*CONN
*I *841:D I *D sky130_fd_sc_hd__dfrtp_2
*I *721:Y O *D sky130_fd_sc_hd__xnor2_1
*CAP
1 *841:D 0.00172243
2 *721:Y 0.00172243
3 *841:D *690:C 2.75229e-05
4 *841:D *702:A_N 0.000217077
5 *841:D *718:A2 0.000316597
6 *841:D *726:B 0.000692593
7 *841:D *755:A 9.50936e-05
8 *841:D *767:B 0.000303101
9 *841:D *767:C 0.000419378
10 *841:D *772:A2 0.000607633
11 *841:D *832:RESET_B 6.44066e-05
12 *841:D *841:RESET_B 2.49909e-05
13 *841:D *81:51 6.90485e-05
14 *841:D *130:141 2.15826e-05
*RES
1 *721:Y *841:D 35.76 
*END

*D_NET *33 0.0160093
*CONN
*I *819:D I *D sky130_fd_sc_hd__dfrtp_2
*I *737:Y O *D sky130_fd_sc_hd__xnor2_1
*CAP
1 *819:D 0.000579671
2 *737:Y 0.000845838
3 *33:18 0.00156285
4 *33:16 0.00182901
5 *819:D *749:B 0.00101457
6 *819:D *779:A 7.10084e-05
7 *819:D *779:C 9.97877e-05
8 *819:D *780:B1 0.00101079
9 *33:16 *694:D 0
10 *33:16 *720:A 0.0004565
11 *33:16 *731:A2 0.000264366
12 *33:16 *737:B 2.21074e-05
13 *33:16 *822:D 3.04827e-05
14 *33:16 *82:20 0.000306247
15 *33:16 *131:20 5.80453e-05
16 *33:18 *131:20 0
17 *33:18 *131:26 0.00389978
18 *33:18 *168:88 0.00332279
19 *837:D *33:16 0.000414435
20 *838:D *33:16 0
21 *838:D *33:18 0.000221041
*RES
1 *737:Y *33:16 23.395 
2 *33:16 *33:18 49.065 
3 *33:18 *819:D 19.695 
*END

*D_NET *34 0.00523288
*CONN
*I *820:D I *D sky130_fd_sc_hd__dfrtp_1
*I *740:X O *D sky130_fd_sc_hd__clkbuf_1
*CAP
1 *820:D 0.00149361
2 *740:X 0.00149361
3 *820:D *725:B1 0.00055829
4 *820:D *814:D 2.65814e-06
5 *820:D *818:RESET_B 0.000535397
6 *820:D *820:RESET_B 2.19562e-06
7 *820:D *837:RESET_B 4.66108e-05
8 *820:D *854:A 0.000907483
9 *820:D *89:26 2.94708e-05
10 *820:D *133:10 2.12295e-05
11 *820:D *142:136 0.000114813
12 *820:D *166:63 2.75145e-05
*RES
1 *740:X *820:D 29.76 
*END

*D_NET *35 0.00186016
*CONN
*I *821:D I *D sky130_fd_sc_hd__dfrtp_2
*I *743:Y O *D sky130_fd_sc_hd__nor2_1
*CAP
1 *821:D 0.000758145
2 *743:Y 0.000758145
3 *821:D *743:A 6.69608e-06
4 *821:D *743:B 4.89395e-05
5 *821:D *821:CLK 0.000288239
*RES
1 *743:Y *821:D 15.035 
*END

*D_NET *36 0.00289724
*CONN
*I *822:D I *D sky130_fd_sc_hd__dfrtp_2
*I *746:Y O *D sky130_fd_sc_hd__nor2_1
*CAP
1 *822:D 0.000478833
2 *746:Y 0.000478833
3 *822:D *712:B 0.000132842
4 *822:D *737:B 0.000107535
5 *822:D *746:B 2.86975e-05
6 *822:D *823:CLK 0.000114602
7 *822:D *838:RESET_B 4.82863e-05
8 *822:D *856:A 0.000848045
9 *822:D *82:20 0.000152482
10 *822:D *89:8 2.92496e-05
11 *822:D *89:26 4.66108e-05
12 *822:D *137:70 3.59531e-06
13 *822:D *165:10 2.75145e-05
14 *18:20 *822:D 0.000369631
15 *33:16 *822:D 3.04827e-05
*RES
1 *746:Y *822:D 21.63 
*END

*D_NET *37 0.00377981
*CONN
*I *823:D I *D sky130_fd_sc_hd__dfrtp_4
*I *747:X O *D sky130_fd_sc_hd__xor2_1
*CAP
1 *823:D 0.000398471
2 *747:X 0.000398471
3 *823:D *747:A 0.000205695
4 *823:D *747:B 0.00196227
5 *823:D *765:A 8.12896e-06
6 *823:D *774:A 0.000117265
7 *823:D *787:A 9.4879e-05
8 *823:D *794:A 9.17251e-05
9 *823:D *817:RESET_B 2.86975e-05
10 *823:D *823:RESET_B 0.000474201
*RES
1 *747:X *823:D 22.745 
*END

*D_NET *38 0.0113536
*CONN
*I *824:D I *D sky130_fd_sc_hd__dfrtp_1
*I *753:X O *D sky130_fd_sc_hd__buf_1
*CAP
1 *824:D 0.00296773
2 *753:X 0.00296773
3 *824:D *688:A 0.000103019
4 *824:D *709:B1 5.71907e-05
5 *824:D *715:A 0.000116635
6 *824:D *719:A 5.72486e-05
7 *824:D *719:B 0.000106321
8 *824:D *738:A1 0
9 *824:D *753:A 3.46795e-05
10 *824:D *821:CLK 0.00019783
11 *824:D *822:RESET_B 0.000111177
12 *824:D *824:CLK 4.66826e-05
13 *824:D *831:RESET_B 0.00026052
14 *824:D *832:RESET_B 0.00174851
15 *824:D *43:38 0.00028793
16 *824:D *61:24 0
17 *824:D *77:30 0.000221275
18 *824:D *77:37 5.91114e-05
19 *824:D *83:18 0
20 *824:D *132:81 0.000111995
21 *824:D *138:8 4.72794e-05
22 *824:D *138:10 0.000119227
23 *824:D *138:12 0.000184963
24 *824:D *138:63 5.79947e-05
25 *824:D *140:30 4.35348e-05
26 *824:D *151:14 1.08194e-05
27 *824:D *152:50 0
28 *824:D *159:10 0.000156652
29 *824:D *159:23 0.000232467
30 *824:D *166:63 0.000540732
31 *835:D *824:D 0.000504331
*RES
1 *753:X *824:D 40.2311 
*END

*D_NET *39 0.0125224
*CONN
*I *825:D I *D sky130_fd_sc_hd__dfrtp_4
*I *757:X O *D sky130_fd_sc_hd__buf_1
*CAP
1 *825:D 0.000655059
2 *757:X 0.00133019
3 *39:10 0.00374434
4 *39:8 0.00441947
5 *825:D *825:RESET_B 0.000114789
6 *825:D *161:46 3.20961e-05
7 *825:D *168:16 0.000166106
8 *39:8 *857:A 0.00149829
9 *39:10 *690:D 0
10 *39:10 *717:A 0
11 *39:10 *759:A 0
12 *39:10 *835:RESET_B 0
13 *39:10 *852:A 0
14 *39:10 *64:16 0.00050384
15 seg[3] *39:10 5.82237e-05
16 seg[4] *39:10 0
*RES
1 *757:X *39:8 21.645 
2 *39:8 *39:10 56.715 
3 *39:10 *825:D 14.745 
*END

*D_NET *40 0.00541816
*CONN
*I *826:D I *D sky130_fd_sc_hd__dfrtp_2
*I *758:Y O *D sky130_fd_sc_hd__xnor2_1
*CAP
1 *826:D 0.00081897
2 *758:Y 0.00081897
3 *826:D *743:A 0.000586084
4 *826:D *743:B 0.000832351
5 *826:D *761:A1 0.000412159
6 *826:D *778:B 0.000154169
7 *826:D *801:A 0.000956819
8 *826:D *813:CLK 0.000122184
9 *826:D *826:CLK 0.000219152
10 *826:D *61:24 0
11 *826:D *138:65 0.000472307
12 *826:D *169:16 2.49909e-05
*RES
1 *758:Y *826:D 31.11 
*END

*D_NET *41 0.00226503
*CONN
*I *813:RESET_B I *D sky130_fd_sc_hd__dfrtp_4
*I *783:Y O *D sky130_fd_sc_hd__inv_2
*CAP
1 *813:RESET_B 0.000553155
2 *783:Y 0.000553155
3 *813:RESET_B *716:B1 1.95533e-05
4 *813:RESET_B *738:A1 5.16397e-05
5 *813:RESET_B *764:A_N 0
6 *813:RESET_B *822:RESET_B 4.6558e-05
7 *813:RESET_B *49:8 0.000158532
8 *813:RESET_B *136:14 0.000288136
9 *813:RESET_B *136:32 0.00011099
10 *813:RESET_B *151:14 0.000483306
*RES
1 *783:Y *813:RESET_B 14.3559 
*END

*D_NET *42 0.00438066
*CONN
*I *814:RESET_B I *D sky130_fd_sc_hd__dfrtp_4
*I *784:Y O *D sky130_fd_sc_hd__inv_2
*CAP
1 *814:RESET_B 0.000642395
2 *784:Y 0.000642395
3 *814:RESET_B *780:B1 9.34773e-06
4 *814:RESET_B *784:A 0.00107014
5 *814:RESET_B *820:RESET_B 0.000186792
6 *814:RESET_B *854:A 0.000102996
7 *814:RESET_B *129:70 0.000225285
8 *814:RESET_B *129:102 4.77757e-05
9 *814:RESET_B *142:10 0.000258382
10 *814:RESET_B *142:14 0.000881948
11 *814:RESET_B *142:130 3.6355e-05
12 *814:RESET_B *155:14 0.000276852
*RES
1 *784:Y *814:RESET_B 23.6675 
*END

*D_NET *43 0.0118777
*CONN
*I *815:RESET_B I *D sky130_fd_sc_hd__dfrtp_4
*I *785:Y O *D sky130_fd_sc_hd__inv_2
*CAP
1 *815:RESET_B 0.00126396
2 *785:Y 0.00171281
3 *43:38 0.00297677
4 *815:RESET_B *687:C 6.1265e-05
5 *815:RESET_B *688:D 0.000126765
6 *815:RESET_B *708:A 1.04292e-05
7 *815:RESET_B *711:B 0.000170888
8 *815:RESET_B *728:A 0.000631751
9 *815:RESET_B *738:A2 5.53684e-05
10 *815:RESET_B *769:A1 0.000316528
11 *815:RESET_B *817:RESET_B 0.000106321
12 *815:RESET_B *141:14 2.03947e-05
13 *815:RESET_B *141:37 7.70424e-07
14 *815:RESET_B *143:26 0.000109232
15 *815:RESET_B *158:20 0.000340957
16 *43:38 *688:A 4.36573e-06
17 *43:38 *715:A 7.06865e-05
18 *43:38 *716:B1 0.00115614
19 *43:38 *761:A1 0
20 *43:38 *767:A 0
21 *43:38 *822:RESET_B 0.000402907
22 *43:38 *840:CLK 5.53249e-06
23 *43:38 *55:22 0.000119246
24 *43:38 *91:40 0
25 *43:38 *126:32 5.4003e-05
26 *43:38 *135:14 0.000375235
27 *43:38 *136:14 0.000275656
28 *43:38 *144:66 8.49376e-05
29 *43:38 *151:14 7.14361e-05
30 *43:38 *166:63 0.000354194
31 *818:D *815:RESET_B 0.000189751
32 *824:D *43:38 0.00028793
33 *834:D *43:38 0.000521438
*RES
1 *785:Y *43:38 49.9 
2 *43:38 *815:RESET_B 25.5175 
*END

*D_NET *44 0.00353376
*CONN
*I *816:RESET_B I *D sky130_fd_sc_hd__dfrtp_4
*I *786:Y O *D sky130_fd_sc_hd__inv_2
*CAP
1 *816:RESET_B 0.000836086
2 *786:Y 0.000836086
3 *816:RESET_B *700:A 0.00029883
4 *816:RESET_B *707:A 0.000451035
5 *816:RESET_B *853:A 9.57985e-05
6 *816:RESET_B *135:14 0.000627873
7 *816:RESET_B *141:79 0.000301963
8 *816:RESET_B *161:21 8.60912e-05
*RES
1 *786:Y *816:RESET_B 20.54 
*END

*D_NET *45 0.0118718
*CONN
*I *817:RESET_B I *D sky130_fd_sc_hd__dfrtp_2
*I *787:Y O *D sky130_fd_sc_hd__inv_2
*CAP
1 *817:RESET_B 0.00372934
2 *787:Y 0.00372934
3 *817:RESET_B *694:C 0
4 *817:RESET_B *704:A3 0
5 *817:RESET_B *721:B 2.22315e-05
6 *817:RESET_B *725:A1 0.000485623
7 *817:RESET_B *725:A2 0.000181232
8 *817:RESET_B *734:A 0.000120925
9 *817:RESET_B *737:A 0
10 *817:RESET_B *743:A 0
11 *817:RESET_B *758:B 0.00069579
12 *817:RESET_B *760:A3 1.81181e-05
13 *817:RESET_B *768:A 3.66591e-05
14 *817:RESET_B *771:A1_N 0
15 *817:RESET_B *823:RESET_B 4.77757e-05
16 *817:RESET_B *80:14 0.000169548
17 *817:RESET_B *114:26 0.00169736
18 *817:RESET_B *122:10 0.000123946
19 *817:RESET_B *142:20 9.30787e-05
20 *817:RESET_B *143:55 0.000324297
21 *817:RESET_B *149:24 0.000261523
22 *815:RESET_B *817:RESET_B 0.000106321
23 *823:D *817:RESET_B 2.86975e-05
24 *843:A *817:RESET_B 0
*RES
1 *787:Y *817:RESET_B 31.8102 
*END

*D_NET *46 0.00471097
*CONN
*I *818:RESET_B I *D sky130_fd_sc_hd__dfrtp_2
*I *788:Y O *D sky130_fd_sc_hd__inv_2
*CAP
1 *818:RESET_B 0.000859824
2 *788:Y 0.000859824
3 *818:RESET_B *697:B 0.000240274
4 *818:RESET_B *699:B 7.23602e-05
5 *818:RESET_B *721:B 0.000246763
6 *818:RESET_B *733:B 2.69493e-05
7 *818:RESET_B *761:A1 0.000181579
8 *818:RESET_B *762:A1 7.71167e-05
9 *818:RESET_B *768:A 0.000273052
10 *818:RESET_B *769:A1 0.000186969
11 *818:RESET_B *824:RESET_B 0.000320762
12 *818:RESET_B *844:A 4.82863e-05
13 *818:RESET_B *89:26 0.000208892
14 *818:RESET_B *116:20 9.17189e-05
15 *818:RESET_B *126:32 0
16 *818:RESET_B *129:102 0.000179324
17 *818:RESET_B *133:10 6.36438e-07
18 *818:RESET_B *142:136 3.90649e-05
19 *818:RESET_B *156:18 4.77719e-05
20 *818:RESET_B *156:56 0.00021441
21 *820:D *818:RESET_B 0.000535397
*RES
1 *788:Y *818:RESET_B 29.4575 
*END

*D_NET *47 0.0132822
*CONN
*I *819:RESET_B I *D sky130_fd_sc_hd__dfrtp_2
*I *789:Y O *D sky130_fd_sc_hd__inv_2
*CAP
1 *819:RESET_B 0.00226538
2 *789:Y 0.000380454
3 *47:12 0.00264583
4 *819:RESET_B *693:C 0.000160054
5 *819:RESET_B *695:D 0
6 *819:RESET_B *700:B 0
7 *819:RESET_B *721:B 0
8 *819:RESET_B *755:A 0.000164257
9 *819:RESET_B *755:B 0
10 *819:RESET_B *779:A 0
11 *819:RESET_B *830:RESET_B 0.000208918
12 *819:RESET_B *78:12 0.00294993
13 *819:RESET_B *131:26 0.000550224
14 *819:RESET_B *148:22 2.56388e-05
15 *819:RESET_B *162:12 0.000257211
16 *819:RESET_B *165:48 1.48965e-05
17 *47:12 *694:A 3.29947e-05
18 *47:12 *694:C 9.86965e-05
19 *47:12 *695:D 0.000337831
20 *47:12 *698:A2 3.83194e-05
21 *47:12 *742:A 0.000200342
22 *47:12 *789:A 1.1392e-05
23 *47:12 *131:24 0
24 *47:12 *164:87 0.000412761
25 *838:D *819:RESET_B 0.00249809
26 *5:13 *819:RESET_B 2.89842e-05
*RES
1 *789:Y *47:12 12.615 
2 *47:12 *819:RESET_B 46.1381 
*END

*D_NET *48 0.00378119
*CONN
*I *820:RESET_B I *D sky130_fd_sc_hd__dfrtp_1
*I *790:Y O *D sky130_fd_sc_hd__inv_2
*CAP
1 *820:RESET_B 0.00118404
2 *790:Y 0.00118404
3 *820:RESET_B *714:A1 8.84407e-05
4 *820:RESET_B *714:A2 4.01527e-05
5 *820:RESET_B *790:A 5.83121e-06
6 *820:RESET_B *814:D 0.000300325
7 *820:RESET_B *854:A 0.000239314
8 *820:RESET_B *142:130 0
9 *820:RESET_B *163:24 0.000130078
10 *814:RESET_B *820:RESET_B 0.000186792
11 *820:D *820:RESET_B 2.19562e-06
12 *834:D *820:RESET_B 0.000419983
*RES
1 *790:Y *820:RESET_B 22.295 
*END

*D_NET *49 0.00903952
*CONN
*I *821:RESET_B I *D sky130_fd_sc_hd__dfrtp_2
*I *791:Y O *D sky130_fd_sc_hd__inv_2
*CAP
1 *821:RESET_B 0.00100398
2 *791:Y 0.000954051
3 *49:8 0.00195803
4 *821:RESET_B *716:A1_N 0.000315007
5 *821:RESET_B *764:B 0
6 *821:RESET_B *765:A 0.00032964
7 *821:RESET_B *826:RESET_B 0
8 *821:RESET_B *128:54 0.000205787
9 *821:RESET_B *128:56 1.52945e-05
10 *821:RESET_B *141:79 0.000646227
11 *821:RESET_B *169:16 0.00131418
12 *821:RESET_B *169:54 0.00111548
13 *49:8 *808:A 2.05056e-05
14 *49:8 *822:RESET_B 4.66108e-05
15 *49:8 *824:RESET_B 0.000156225
16 *49:8 *89:26 8.48377e-05
17 *49:8 *128:18 0.000109856
18 *49:8 *129:109 0.000171362
19 *49:8 *129:116 0.000188363
20 *49:8 *129:129 7.98464e-05
21 *49:8 *130:101 6.51658e-05
22 *813:RESET_B *49:8 0.000158532
23 *839:D *821:RESET_B 0.000100539
*RES
1 *791:Y *49:8 19.575 
2 *49:8 *821:RESET_B 32.705 
*END

*D_NET *50 0.00793105
*CONN
*I *822:RESET_B I *D sky130_fd_sc_hd__dfrtp_2
*I *792:Y O *D sky130_fd_sc_hd__inv_2
*CAP
1 *822:RESET_B 0.00133442
2 *792:Y 0.00133442
3 *822:RESET_B *688:A 0.000147364
4 *822:RESET_B *716:B1 0.000940817
5 *822:RESET_B *719:A 0.000417112
6 *822:RESET_B *738:A1 4.99279e-05
7 *822:RESET_B *764:A_N 2.69863e-05
8 *822:RESET_B *769:B1_N 0.00115095
9 *822:RESET_B *778:A 3.24131e-05
10 *822:RESET_B *838:RESET_B 0.00113776
11 *822:RESET_B *55:22 3.87728e-05
12 *822:RESET_B *151:14 0.000109753
13 *822:RESET_B *154:27 0.000135537
14 *822:RESET_B *164:30 0.000225807
15 *822:RESET_B *165:10 6.03947e-05
16 *822:RESET_B *166:63 0.000181376
17 *813:RESET_B *822:RESET_B 4.6558e-05
18 *824:D *822:RESET_B 0.000111177
19 *43:38 *822:RESET_B 0.000402907
20 *49:8 *822:RESET_B 4.66108e-05
*RES
1 *792:Y *822:RESET_B 41.0026 
*END

*D_NET *51 0.00313052
*CONN
*I *823:RESET_B I *D sky130_fd_sc_hd__dfrtp_4
*I *794:Y O *D sky130_fd_sc_hd__inv_2
*CAP
1 *823:RESET_B 0.000401359
2 *794:Y 0.000401359
3 *823:RESET_B *731:B1_N 8.07502e-05
4 *823:RESET_B *747:B 5.77025e-05
5 *823:RESET_B *765:A 0.0013092
6 *823:RESET_B *774:A 0.000197858
7 *823:RESET_B *787:A 0.000160319
8 *817:RESET_B *823:RESET_B 4.77757e-05
9 *823:D *823:RESET_B 0.000474201
*RES
1 *794:Y *823:RESET_B 16.8325 
*END

*D_NET *52 0.00658009
*CONN
*I *824:RESET_B I *D sky130_fd_sc_hd__dfrtp_1
*I *795:Y O *D sky130_fd_sc_hd__inv_2
*CAP
1 *824:RESET_B 0.00186895
2 *795:Y 0.00186895
3 *824:RESET_B *693:A 0.000147768
4 *824:RESET_B *714:A1 0.000155601
5 *824:RESET_B *761:A1 0.000176771
6 *824:RESET_B *808:A 2.49909e-05
7 *824:RESET_B *116:20 0.000160001
8 *824:RESET_B *126:32 0
9 *824:RESET_B *128:18 0.000107324
10 *824:RESET_B *129:109 0.000101493
11 *824:RESET_B *129:116 0.000195059
12 *824:RESET_B *129:129 8.49936e-05
13 *824:RESET_B *130:101 8.63479e-05
14 *824:RESET_B *133:30 0.000490083
15 *824:RESET_B *156:56 0.000634765
16 *818:RESET_B *824:RESET_B 0.000320762
17 *49:8 *824:RESET_B 0.000156225
*RES
1 *795:Y *824:RESET_B 36.44 
*END

*D_NET *53 0.008606
*CONN
*I *825:RESET_B I *D sky130_fd_sc_hd__dfrtp_4
*I *796:Y O *D sky130_fd_sc_hd__inv_2
*CAP
1 *825:RESET_B 0.00155237
2 *796:Y 0.00155237
3 *825:RESET_B *715:A 5.88334e-05
4 *825:RESET_B *715:C 3.37859e-05
5 *825:RESET_B *748:B 1.44259e-05
6 *825:RESET_B *749:A 4.77757e-05
7 *825:RESET_B *749:B 0.000180557
8 *825:RESET_B *749:C 1.70906e-05
9 *825:RESET_B *796:A 0.00014956
10 *825:RESET_B *825:CLK 0.000194694
11 *825:RESET_B *853:A 0.000845749
12 *825:RESET_B *99:14 9.37731e-05
13 *825:RESET_B *109:14 0.00026901
14 *825:RESET_B *116:20 0.000580786
15 *825:RESET_B *135:14 0.000137578
16 *825:RESET_B *139:8 0.000193806
17 *825:RESET_B *148:16 4.11112e-05
18 *825:RESET_B *161:46 0.00170398
19 *825:RESET_B *162:12 0.000269992
20 *825:RESET_B *163:24 0.000106174
21 *825:RESET_B *168:82 0.000447791
22 *825:D *825:RESET_B 0.000114789
*RES
1 *796:Y *825:RESET_B 47.0375 
*END

*D_NET *54 0.00240987
*CONN
*I *826:RESET_B I *D sky130_fd_sc_hd__dfrtp_2
*I *797:Y O *D sky130_fd_sc_hd__inv_2
*CAP
1 *826:RESET_B 0.00036876
2 *797:Y 0.00036876
3 *826:RESET_B *764:B 0.00100761
4 *826:RESET_B *128:54 0.000638643
5 *821:RESET_B *826:RESET_B 0
6 *839:D *826:RESET_B 2.60986e-05
*RES
1 *797:Y *826:RESET_B 17.375 
*END

*D_NET *55 0.0116365
*CONN
*I *827:RESET_B I *D sky130_fd_sc_hd__dfrtp_1
*I *798:Y O *D sky130_fd_sc_hd__inv_2
*CAP
1 *827:RESET_B 0.000574077
2 *798:Y 0.00187449
3 *55:22 0.00244857
4 *827:RESET_B *778:B 0.000513926
5 *827:RESET_B *136:14 0.000846621
6 *827:RESET_B *151:14 0.00142051
7 *55:22 *688:A 0.000180796
8 *55:22 *768:B 0.000336068
9 *55:22 *798:A 3.03684e-05
10 *55:22 *818:CLK 4.77719e-05
11 *55:22 *57:12 0.000605726
12 *55:22 *110:16 1.88602e-05
13 *55:22 *110:58 0
14 *55:22 *119:21 0.000529665
15 *55:22 *139:10 0.000184791
16 *55:22 *139:12 0.000234467
17 *55:22 *139:76 0.000126408
18 *55:22 *144:66 0.000127248
19 *55:22 *148:22 0.000420952
20 *55:22 *152:50 0.000136884
21 *55:22 *152:67 0
22 *55:22 *166:63 0.000714749
23 *822:RESET_B *55:22 3.87728e-05
24 *827:D *827:RESET_B 4.26581e-05
25 *840:D *55:22 6.29288e-05
26 *43:38 *55:22 0.000119246
*RES
1 *798:Y *55:22 48.45 
2 *55:22 *827:RESET_B 21.9325 
*END

*D_NET *56 0.00299972
*CONN
*I *828:RESET_B I *D sky130_fd_sc_hd__dfrtp_1
*I *799:Y O *D sky130_fd_sc_hd__inv_2
*CAP
1 *828:RESET_B 0.00100739
2 *799:Y 0.00100739
3 *828:RESET_B *690:A 3.96263e-05
4 *828:RESET_B *690:C 7.06865e-05
5 *828:RESET_B *707:B 2.42236e-05
6 *828:RESET_B *717:A 0
7 *828:RESET_B *717:B 0.000417805
8 *828:RESET_B *738:A3 0.000198219
9 *828:RESET_B *759:A 3.90873e-06
10 *828:RESET_B *772:A1 0.000106344
11 *828:RESET_B *773:B 9.99475e-05
12 *828:RESET_B *799:A 2.41838e-05
*RES
1 *799:Y *828:RESET_B 29.16 
*END

*D_NET *57 0.00996544
*CONN
*I *829:RESET_B I *D sky130_fd_sc_hd__dfrtp_2
*I *800:Y O *D sky130_fd_sc_hd__inv_2
*CAP
1 *829:RESET_B 0.000415145
2 *800:Y 0.00200235
3 *57:12 0.00241749
4 *829:RESET_B *700:A 0.000613311
5 *829:RESET_B *748:C 0.00023422
6 *829:RESET_B *148:10 0.000118271
7 *57:12 *713:A 0
8 *57:12 *748:C 0
9 *57:12 *785:A 0.000517553
10 *57:12 *825:CLK 0
11 *57:12 *841:RESET_B 0.000145471
12 *57:12 *854:A 0.00124838
13 *57:12 *81:51 1.56002e-05
14 *57:12 *90:12 0.000248109
15 *57:12 *129:129 0.000827809
16 *57:12 *151:18 0
17 *57:12 *152:67 4.85693e-05
18 *57:12 *153:33 0.000328206
19 *57:12 *166:63 0.000179233
20 *55:22 *57:12 0.000605726
*RES
1 *800:Y *57:12 45.08 
2 *57:12 *829:RESET_B 9.7125 
*END

*D_NET *58 0.0083523
*CONN
*I *830:RESET_B I *D sky130_fd_sc_hd__dfrtp_1
*I *801:Y O *D sky130_fd_sc_hd__inv_2
*CAP
1 *830:RESET_B 0.001403
2 *801:Y 0.001403
3 *830:RESET_B *695:D 0.0002073
4 *830:RESET_B *710:A1 6.37024e-06
5 *830:RESET_B *710:A2 1.56428e-05
6 *830:RESET_B *712:A 8.58181e-05
7 *830:RESET_B *715:A 0.000466245
8 *830:RESET_B *715:B 0.000231802
9 *830:RESET_B *732:A 0.00011077
10 *830:RESET_B *779:C 0.00180209
11 *830:RESET_B *78:12 0.00182425
12 *830:RESET_B *145:91 0.000340778
13 *830:RESET_B *168:82 0.000114435
14 *817:D *830:RESET_B 3.50539e-05
15 *819:RESET_B *830:RESET_B 0.000208918
16 *29:18 *830:RESET_B 9.68316e-05
*RES
1 *801:Y *830:RESET_B 46.8425 
*END

*D_NET *59 0.00585317
*CONN
*I *831:RESET_B I *D sky130_fd_sc_hd__dfrtp_1
*I *802:Y O *D sky130_fd_sc_hd__inv_2
*CAP
1 *831:RESET_B 0.00124234
2 *802:Y 0.00124234
3 *831:RESET_B *697:A 0.000782136
4 *831:RESET_B *697:B 0.000122699
5 *831:RESET_B *710:B1 0.000278974
6 *831:RESET_B *771:B2 0.000405745
7 *831:RESET_B *839:CLK 0.000232207
8 *831:RESET_B *844:A 8.70529e-05
9 *831:RESET_B *73:12 0.000632779
10 *831:RESET_B *137:10 2.91667e-05
11 *831:RESET_B *138:8 0.000262186
12 *831:RESET_B *138:10 9.50342e-06
13 *831:RESET_B *150:6 0.000118081
14 *831:RESET_B *157:14 0.000117811
15 *824:D *831:RESET_B 0.00026052
16 *839:D *831:RESET_B 2.96334e-05
*RES
1 *802:Y *831:RESET_B 31.9625 
*END

*D_NET *60 0.0134813
*CONN
*I *832:RESET_B I *D sky130_fd_sc_hd__dfrtp_1
*I *803:Y O *D sky130_fd_sc_hd__inv_2
*CAP
1 *832:RESET_B 0.00442087
2 *803:Y 0.00442087
3 *832:RESET_B *718:A1 0
4 *832:RESET_B *719:B 0.00221619
5 *832:RESET_B *739:A_N 8.11581e-05
6 *832:RESET_B *753:A 0.000253166
7 *832:RESET_B *769:B1_N 5.77615e-05
8 *832:RESET_B *778:A 0
9 *832:RESET_B *778:B 3.23386e-05
10 *832:RESET_B *130:141 0.000186077
11 *824:D *832:RESET_B 0.00174851
12 *841:D *832:RESET_B 6.44066e-05
*RES
1 *803:Y *832:RESET_B 21.0779 
*END

*D_NET *61 0.0121672
*CONN
*I *833:RESET_B I *D sky130_fd_sc_hd__dfrtp_2
*I *804:Y O *D sky130_fd_sc_hd__inv_2
*CAP
1 *833:RESET_B 0.000200783
2 *804:Y 0.00248547
3 *61:24 0.00268625
4 *833:RESET_B *760:B1 0.000198777
5 *833:RESET_B *774:A 0.000113533
6 *61:24 *690:D 7.23602e-05
7 *61:24 *719:A 0.000176072
8 *61:24 *726:B 0.00295373
9 *61:24 *753:A 0.000362793
10 *61:24 *761:A1 0
11 *61:24 *787:A 0.000399926
12 *61:24 *95:37 0.000719872
13 *61:24 *128:115 8.23457e-05
14 *61:24 *140:10 0.000838789
15 *61:24 *140:26 0.000199551
16 *61:24 *140:62 0.000113383
17 *61:24 *140:71 3.24385e-05
18 *824:D *61:24 0
19 *826:D *61:24 0
20 *830:D *61:24 0.000531104
*RES
1 *804:Y *61:24 49.6464 
2 *61:24 *833:RESET_B 3.5025 
*END

*D_NET *62 0.000455993
*CONN
*I *834:RESET_B I *D sky130_fd_sc_hd__dfrtp_1
*I *805:Y O *D sky130_fd_sc_hd__inv_2
*CAP
1 *834:RESET_B 0.000140647
2 *805:Y 0.000140647
3 *834:RESET_B *693:A 0
4 *834:RESET_B *749:A 2.32277e-05
5 *834:RESET_B *153:33 7.9576e-05
6 *834:D *834:RESET_B 7.18941e-05
*RES
1 *805:Y *834:RESET_B 8.2325 
*END

*D_NET *63 0.00236036
*CONN
*I *835:RESET_B I *D sky130_fd_sc_hd__dfrtp_2
*I *806:Y O *D sky130_fd_sc_hd__inv_2
*CAP
1 *835:RESET_B 0.00087886
2 *806:Y 0.00087886
3 *835:RESET_B *723:A 4.99619e-05
4 *835:RESET_B *856:A 8.66929e-05
5 *835:RESET_B *64:16 0.00021779
6 *835:RESET_B *96:12 0.000113226
7 *835:RESET_B *154:8 0.000116102
8 seg[5] *835:RESET_B 1.88656e-05
9 *39:10 *835:RESET_B 0
*RES
1 *806:Y *835:RESET_B 20.8625 
*END

*D_NET *64 0.0142297
*CONN
*I *836:RESET_B I *D sky130_fd_sc_hd__dfrtp_1
*I *807:Y O *D sky130_fd_sc_hd__inv_2
*CAP
1 *836:RESET_B 0.0033403
2 *807:Y 0.00219261
3 *64:16 0.00553291
4 *836:RESET_B *690:A 0.000511847
5 *836:RESET_B *692:A 1.93765e-05
6 *836:RESET_B *704:A1 5.05066e-06
7 *836:RESET_B *715:A 0.000220834
8 *836:RESET_B *715:C 0
9 *836:RESET_B *779:B 0
10 *836:RESET_B *836:CLK 4.11729e-05
11 *836:RESET_B *91:40 0.00023765
12 *836:RESET_B *132:81 0
13 *836:RESET_B *146:53 0
14 *836:RESET_B *166:63 6.68625e-06
15 *64:16 *717:A 0.0009183
16 *64:16 *722:A 0
17 *64:16 *764:A_N 4.48202e-05
18 *64:16 *764:B 0.000122699
19 *64:16 *856:A 0.000141599
20 *64:16 *95:8 0
21 *64:16 *95:25 0
22 *64:16 *144:18 0
23 *64:16 *147:14 0
24 seg[2] *64:16 0
25 seg[3] *64:16 0
26 seg[4] *64:16 0.000127025
27 seg[5] *64:16 2.05641e-05
28 *835:RESET_B *64:16 0.00021779
29 *836:D *836:RESET_B 2.46073e-05
30 *5:13 *836:RESET_B 0
31 *39:10 *64:16 0.00050384
*RES
1 *807:Y *64:16 47.7275 
2 *64:16 *836:RESET_B 8.81987 
*END

*D_NET *65 0.00545417
*CONN
*I *837:RESET_B I *D sky130_fd_sc_hd__dfrtp_1
*I *808:Y O *D sky130_fd_sc_hd__inv_2
*CAP
1 *837:RESET_B 0.0018514
2 *808:Y 0.0018514
3 *837:RESET_B *688:A 4.66108e-05
4 *837:RESET_B *738:B1 4.36694e-05
5 *837:RESET_B *764:B 0.000245206
6 *837:RESET_B *775:A2 0.000184036
7 *837:RESET_B *820:CLK 0.000336053
8 *837:RESET_B *121:12 0.000245206
9 *837:RESET_B *153:50 0.000233201
10 *837:RESET_B *157:8 4.66108e-05
11 *837:RESET_B *163:24 0.000125788
12 *837:RESET_B *166:63 0.000198388
13 *820:D *837:RESET_B 4.66108e-05
*RES
1 *808:Y *837:RESET_B 30.0725 
*END

*D_NET *66 0.00777337
*CONN
*I *838:RESET_B I *D sky130_fd_sc_hd__dfrtp_1
*I *809:Y O *D sky130_fd_sc_hd__inv_2
*CAP
1 *838:RESET_B 0.00232319
2 *809:Y 0.00232319
3 *838:RESET_B *719:A 0.000233294
4 *838:RESET_B *764:A_N 0
5 *838:RESET_B *794:A 0.000475286
6 *838:RESET_B *822:CLK 9.50298e-05
7 *838:RESET_B *838:CLK 0.000116307
8 *838:RESET_B *82:10 0.0001383
9 *838:RESET_B *130:18 0.00025063
10 *838:RESET_B *164:30 8.91225e-05
11 *838:RESET_B *165:10 0.000542984
12 *822:D *838:RESET_B 4.82863e-05
13 *822:RESET_B *838:RESET_B 0.00113776
14 *835:D *838:RESET_B 0
*RES
1 *809:Y *838:RESET_B 41.1125 
*END

*D_NET *67 0.000836138
*CONN
*I *839:RESET_B I *D sky130_fd_sc_hd__dfrtp_1
*I *810:Y O *D sky130_fd_sc_hd__inv_2
*CAP
1 *839:RESET_B 0.000174288
2 *810:Y 0.000174288
3 *839:RESET_B *761:A1 0.000156142
4 *839:RESET_B *810:A 0.000331421
*RES
1 *810:Y *839:RESET_B 5.4475 
*END

*D_NET *68 0.00862795
*CONN
*I *840:RESET_B I *D sky130_fd_sc_hd__dfrtp_1
*I *811:Y O *D sky130_fd_sc_hd__inv_2
*CAP
1 *840:RESET_B 3.73627e-05
2 *811:Y 0.00125857
3 *68:20 0.00129593
4 *840:RESET_B *690:C 4.1057e-05
5 *840:RESET_B *841:RESET_B 0.000114428
6 *68:20 *690:B 9.14049e-05
7 *68:20 *716:A2_N 0.000985885
8 *68:20 *716:B2 0.000165831
9 *68:20 *718:B1 9.31861e-05
10 *68:20 *719:B 0.000106338
11 *68:20 *726:B 0.000619245
12 *68:20 *753:A 0.0001462
13 *68:20 *810:A 8.40213e-05
14 *68:20 *82:126 0.000220401
15 *68:20 *82:141 0.00089827
16 *68:20 *119:21 0.000125603
17 *68:20 *128:43 0.00022964
18 *68:20 *130:12 0.000684172
19 *68:20 *130:14 0.000286695
20 *68:20 *132:81 2.25079e-05
21 *68:20 *140:10 0.000205444
22 *68:20 *140:26 9.9626e-05
23 *68:20 *140:62 0.000125948
24 *68:20 *140:71 4.15443e-05
25 *68:20 *153:50 1.45569e-05
26 *68:20 *159:23 0.000565057
27 *830:D *68:20 6.90254e-05
*RES
1 *811:Y *68:20 49.785 
2 *68:20 *840:RESET_B 1.0875 
*END

*D_NET *69 0.00641031
*CONN
*I *841:RESET_B I *D sky130_fd_sc_hd__dfrtp_2
*I *812:Y O *D sky130_fd_sc_hd__inv_2
*CAP
1 *841:RESET_B 0.00115814
2 *812:Y 0.00115814
3 *841:RESET_B *690:C 8.20078e-05
4 *841:RESET_B *690:D 0.000259833
5 *841:RESET_B *692:A 0.000597661
6 *841:RESET_B *692:C 0.00131104
7 *841:RESET_B *692:D 0.000267335
8 *841:RESET_B *695:B 4.21973e-05
9 *841:RESET_B *755:A 2.0514e-05
10 *841:RESET_B *759:A 7.25441e-05
11 *841:RESET_B *759:C 0.000370944
12 *841:RESET_B *767:C 2.3184e-05
13 *841:RESET_B *772:B1 8.49205e-05
14 *841:RESET_B *785:A 1.83756e-05
15 *841:RESET_B *812:A 0.000477422
16 *841:RESET_B *116:20 4.4587e-05
17 *841:RESET_B *151:18 0.000136567
18 *840:RESET_B *841:RESET_B 0.000114428
19 *841:D *841:RESET_B 2.49909e-05
20 *57:12 *841:RESET_B 0.000145471
*RES
1 *812:Y *841:RESET_B 35.5175 
*END

*D_NET *70 0.00651401
*CONN
*I *813:D I *D sky130_fd_sc_hd__dfrtp_4
*I *709:Y O *D sky130_fd_sc_hd__a21oi_1
*CAP
1 *813:D 0.00200212
2 *709:Y 0.00200212
3 *813:D *695:A 4.40444e-05
4 *813:D *705:B1 7.73464e-05
5 *813:D *709:A1 2.22652e-05
6 *813:D *727:B1 0.000450528
7 *813:D *762:A1 5.83121e-06
8 *813:D *770:A 0.000119242
9 *813:D *770:C 8.23457e-05
10 *813:D *777:A 5.88279e-05
11 *813:D *778:B 1.56428e-05
12 *813:D *813:CLK 7.91111e-05
13 *813:D *82:98 5.58553e-05
14 *813:D *123:16 0.000155491
15 *813:D *126:32 7.55822e-06
16 *813:D *149:24 0.000435748
17 *813:D *166:22 9.29671e-05
18 *813:D *166:63 5.36944e-05
19 *836:D *813:D 0.000753282
*RES
1 *709:Y *813:D 38.88 
*END

*D_NET *71 0.00692469
*CONN
*I *814:D I *D sky130_fd_sc_hd__dfrtp_4
*I *707:X O *D sky130_fd_sc_hd__xor2_1
*CAP
1 *814:D 0.0016347
2 *707:X 0.0016347
3 *814:D *690:C 8.23457e-05
4 *814:D *707:A 4.41506e-05
5 *814:D *814:CLK 0.000576266
6 *814:D *816:D 0.000366487
7 *814:D *828:CLK 0.000120182
8 *814:D *82:141 0.000835067
9 *814:D *83:18 0.000608522
10 *814:D *126:32 8.35068e-05
11 *814:D *130:101 9.17504e-06
12 *814:D *130:107 9.60582e-07
13 *814:D *134:25 9.2994e-05
14 *814:D *144:16 0.000366487
15 *820:D *814:D 2.65814e-06
16 *820:RESET_B *814:D 0.000300325
17 *22:14 *814:D 0.000166171
*RES
1 *707:X *814:D 44.635 
*END

*D_NET *72 0.00132586
*CONN
*I *815:D I *D sky130_fd_sc_hd__dfrtp_4
*I *705:Y O *D sky130_fd_sc_hd__o31ai_1
*CAP
1 *815:D 0.000228926
2 *705:Y 0.000228926
3 *815:D *705:B1 0.00015326
4 *815:D *741:A 8.52883e-05
5 *815:D *815:CLK 6.71882e-05
6 *815:D *143:26 0.000562273
*RES
1 *705:Y *815:D 9.515 
*END

*D_NET *73 0.0115611
*CONN
*I *816:D I *D sky130_fd_sc_hd__dfrtp_4
*I *697:X O *D sky130_fd_sc_hd__xor2_1
*CAP
1 *816:D 0.000546707
2 *697:X 0.00179505
3 *73:12 0.00234176
4 *816:D *700:A 0.000350882
5 *816:D *773:B 2.68966e-05
6 *816:D *128:105 2.49909e-05
7 *816:D *141:79 0.000348408
8 *816:D *144:16 0.000301804
9 *816:D *168:16 6.32187e-05
10 *816:D *168:26 4.80285e-05
11 *816:D *169:54 0.000406044
12 *73:12 *697:A 0.000524012
13 *73:12 *716:A1_N 0.000256226
14 *73:12 *722:A 5.23362e-05
15 *73:12 *723:A 0.000770756
16 *73:12 *130:78 0.000386747
17 *73:12 *130:91 0.000204456
18 *73:12 *144:16 0.000980718
19 *73:12 *144:18 0.000874388
20 *73:12 *169:54 0.00025845
21 *814:D *816:D 0.000366487
22 *831:RESET_B *73:12 0.000632779
*RES
1 *697:X *73:12 41.7525 
2 *73:12 *816:D 19.7025 
*END

*D_NET *74 0.00540993
*CONN
*I *695:B I *D sky130_fd_sc_hd__and4_2
*I *692:X O *D sky130_fd_sc_hd__and4_1
*CAP
1 *695:B 0.00134206
2 *692:X 0.00134206
3 *695:B *692:A 0.000833631
4 *695:B *700:B 0.000128336
5 *695:B *704:A3 0.00010163
6 *695:B *705:B1 8.33066e-06
7 *695:B *715:A 0.000132233
8 *695:B *725:B1 0.00119858
9 *695:B *842:A 6.90254e-05
10 *695:B *75:56 2.75229e-05
11 *695:B *135:30 3.1562e-06
12 *695:B *149:8 0.000111036
13 *695:B *172:18 7.01359e-05
14 *841:RESET_B *695:B 4.21973e-05
*RES
1 *692:X *695:B 36.43 
*END

*D_NET *75 0.0240569
*CONN
*I *749:B I *D sky130_fd_sc_hd__and3_1
*I *742:B I *D sky130_fd_sc_hd__nor2_1
*I *741:B I *D sky130_fd_sc_hd__and2_1
*I *739:A_N I *D sky130_fd_sc_hd__and2b_1
*I *695:C I *D sky130_fd_sc_hd__and4_2
*I *744:C I *D sky130_fd_sc_hd__and3_2
*I *693:X O *D sky130_fd_sc_hd__and4_2
*CAP
1 *749:B 0.00174459
2 *742:B 8.1488e-05
3 *741:B 0.000276934
4 *739:A_N 0.00179632
5 *695:C 0
6 *744:C 0
7 *693:X 0.000141912
8 *75:58 0.00219704
9 *75:56 0.00116284
10 *75:25 0.00151079
11 *75:8 0.00243973
12 *739:A_N *712:B 0.000303684
13 *739:A_N *720:A 0.000350464
14 *739:A_N *731:B1_N 0.000344014
15 *739:A_N *760:B1 0.000135141
16 *739:A_N *769:B1_N 0.000223562
17 *739:A_N *771:A1_N 6.11378e-05
18 *739:A_N *771:A2_N 8.40269e-05
19 *739:A_N *771:B1 1.56428e-05
20 *739:A_N *771:B2 6.12881e-05
21 *739:A_N *794:A 4.66826e-05
22 *739:A_N *797:A 2.30292e-05
23 *739:A_N *832:CLK 3.45588e-05
24 *739:A_N *838:CLK 9.14049e-05
25 *739:A_N *131:20 0.000412565
26 *741:B *730:A 0.000300937
27 *741:B *760:B1 8.23457e-05
28 *741:B *164:34 0
29 *741:B *165:10 0.0002188
30 *742:B *742:A 8.23457e-05
31 *742:B *743:B 1.77665e-05
32 *742:B *789:A 8.43317e-05
33 *749:B *779:A 3.07651e-05
34 *749:B *161:46 4.87689e-05
35 *749:B *164:93 0
36 *749:B *170:16 0.000428812
37 *75:8 *744:A 8.65244e-05
38 *75:8 *749:A 6.42257e-06
39 *75:25 *695:D 0.000195946
40 *75:25 *705:A3 1.05984e-05
41 *75:25 *106:26 0.00130709
42 *75:25 *145:91 0.000330861
43 *75:25 *164:93 0.000554764
44 *75:25 *170:16 0
45 *75:56 *695:A 8.41307e-05
46 *75:56 *701:A 0.000218416
47 *75:56 *705:A3 0.000110216
48 *75:56 *705:B1 0.000369791
49 *75:56 *725:C1 0.00047082
50 *75:56 *730:A 0.000229469
51 *75:56 *731:B1_N 0.000867661
52 *75:56 *837:CLK 0.000761404
53 *75:56 *842:A 8.80265e-05
54 *75:56 *854:A 0.000414465
55 *75:56 *77:14 1.01155e-05
56 *75:56 *83:18 5.04569e-05
57 *75:56 *137:27 0.000216606
58 *75:56 *167:16 0.000579616
59 *75:56 *172:18 0
60 *75:58 *731:B1_N 0.000394289
61 *75:58 *838:CLK 0.000234626
62 *75:58 *137:27 0.000156614
63 *695:B *75:56 2.75229e-05
64 *817:D *75:56 4.1269e-05
65 *819:D *749:B 0.00101457
66 *825:RESET_B *749:B 0.000180557
67 *832:D *739:A_N 0.000129169
68 *832:RESET_B *739:A_N 8.11581e-05
*RES
1 *693:X *75:8 3.445 
2 *75:8 *744:C 1.6 
3 *75:8 *75:25 22.675 
4 *75:25 *695:C 1.6 
5 *75:25 *75:56 36.045 
6 *75:56 *75:58 4.695 
7 *75:58 *739:A_N 32.52 
8 *75:58 *741:B 13.12 
9 *75:56 *742:B 5.445 
10 *75:8 *749:B 29.885 
*END

*D_NET *76 0.00598033
*CONN
*I *695:D I *D sky130_fd_sc_hd__and4_2
*I *694:X O *D sky130_fd_sc_hd__and4_1
*CAP
1 *695:D 0.000691129
2 *694:X 0.000691129
3 *695:D *698:A2 4.77719e-05
4 *695:D *705:A3 0.000123858
5 *695:D *779:C 0.00147646
6 *695:D *106:26 0.000549997
7 *695:D *142:45 9.47972e-06
8 *695:D *142:58 5.88334e-05
9 *695:D *143:26 8.41307e-05
10 *695:D *143:34 8.23457e-05
11 *695:D *145:91 5.36944e-05
12 *695:D *164:87 8.23457e-05
13 *695:D *164:93 3.09164e-05
14 *819:RESET_B *695:D 0
15 *830:RESET_B *695:D 0.0002073
16 *837:D *695:D 0.00125716
17 *838:D *695:D 0
18 *47:12 *695:D 0.000337831
19 *75:25 *695:D 0.000195946
*RES
1 *694:X *695:D 35.82 
*END

*D_NET *77 0.0289924
*CONN
*I *701:A I *D sky130_fd_sc_hd__clkbuf_4
*I *696:D I *D sky130_fd_sc_hd__and4_1
*I *779:D I *D sky130_fd_sc_hd__and4_1
*I *717:B I *D sky130_fd_sc_hd__nand2_1
*I *706:D I *D sky130_fd_sc_hd__and4_1
*I *718:A2 I *D sky130_fd_sc_hd__a21o_1
*I *776:C I *D sky130_fd_sc_hd__and3_1
*I *695:X O *D sky130_fd_sc_hd__and4_2
*CAP
1 *701:A 0.00283464
2 *696:D 0.00021504
3 *779:D 8.35025e-05
4 *717:B 0.000697824
5 *706:D 0
6 *718:A2 0.000329188
7 *776:C 0
8 *695:X 0.000355127
9 *77:86 0.000634848
10 *77:58 0.00101212
11 *77:37 0.0011406
12 *77:30 0.00168401
13 *77:22 0.00188339
14 *77:14 0.00354995
15 *696:D *752:B 0.000186428
16 *696:D *165:77 0.000468982
17 *701:A *700:B 0.00104373
18 *701:A *704:A3 0.000119351
19 *701:A *731:A2 4.89232e-05
20 *701:A *731:B1_N 0.000170104
21 *701:A *735:B 0.000116416
22 *701:A *737:A 0.000723094
23 *701:A *740:A 3.99277e-06
24 *701:A *761:B1_N 0.000100879
25 *701:A *770:C 7.3696e-05
26 *701:A *83:18 0.000131533
27 *701:A *123:16 4.03791e-05
28 *701:A *165:48 0.000134478
29 *701:A *167:16 0.000136898
30 *717:B *690:A 3.79595e-05
31 *717:B *690:B 1.34503e-05
32 *717:B *706:C 3.57349e-05
33 *717:B *738:A3 0.00101889
34 *717:B *738:B1 6.27281e-05
35 *717:B *773:B 4.82919e-05
36 *717:B *92:14 2.14569e-05
37 *717:B *134:6 4.66108e-05
38 *717:B *134:25 9.04636e-05
39 *717:B *144:16 0.00152554
40 *717:B *144:18 0.000163334
41 *718:A2 *702:A_N 2.95708e-05
42 *718:A2 *713:C 8.23457e-05
43 *718:A2 *726:B 0.000116998
44 *718:A2 *772:B1 4.80285e-05
45 *718:A2 *82:141 5.06809e-05
46 *718:A2 *130:141 0.000315411
47 *779:D *779:A 0.000234349
48 *779:D *779:B 4.30051e-05
49 *779:D *779:C 2.68464e-05
50 *779:D *780:B1 0.000381643
51 *77:14 *695:A 9.76407e-06
52 *77:14 *705:A3 0.000343581
53 *77:14 *740:A 1.37819e-05
54 *77:14 *83:18 0.000147682
55 *77:14 *165:48 7.67859e-05
56 *77:22 *704:A3 1.51856e-05
57 *77:22 *709:B1 0.000624837
58 *77:22 *752:B 0.000307633
59 *77:22 *770:C 1.88656e-05
60 *77:22 *135:30 0.000200098
61 *77:22 *165:48 0.000135817
62 *77:30 *709:B1 0.00085476
63 *77:30 *796:A 0.000523238
64 *77:30 *116:20 0.000158066
65 *77:37 *690:B 3.68828e-05
66 *77:37 *776:A 0.000119246
67 *77:37 *140:30 6.28212e-05
68 *77:37 *153:50 0.00014356
69 *77:58 *690:B 2.17931e-05
70 *77:58 *706:B 0.000153816
71 *77:58 *706:C 4.66108e-05
72 *77:58 *773:B 0.00040396
73 *77:58 *82:141 8.23457e-05
74 *77:58 *82:154 3.74161e-05
75 *77:86 *693:B 8.53244e-05
76 *77:86 *693:C 2.79398e-05
77 *77:86 *709:B1 2.4997e-05
78 *77:86 *752:B 0.000335572
79 *77:86 *842:A 0
80 *77:86 *165:77 0.000277864
81 *77:86 *170:16 0
82 *817:D *77:14 3.97748e-05
83 *817:D *77:22 2.46173e-05
84 *824:D *77:30 0.000221275
85 *824:D *77:37 5.91114e-05
86 *828:RESET_B *717:B 0.000417805
87 *841:D *718:A2 0.000316597
88 *843:A *701:A 8.19843e-05
89 *75:56 *701:A 0.000218416
90 *75:56 *77:14 1.01155e-05
*RES
1 *695:X *77:14 8.3553 
2 *77:14 *77:22 11.2325 
3 *77:22 *77:30 21.7925 
4 *77:30 *776:C 1.6 
5 *77:30 *77:37 6.0675 
6 *77:37 *718:A2 13.94 
7 *77:37 *77:58 5.985 
8 *77:58 *706:D 1.6 
9 *77:58 *717:B 30.71 
10 *77:22 *77:86 9.075 
11 *77:86 *779:D 7.155 
12 *77:86 *696:D 10.08 
13 *77:14 *701:A 11.5737 
*END

*D_NET *78 0.0152976
*CONN
*I *697:B I *D sky130_fd_sc_hd__xor2_1
*I *696:X O *D sky130_fd_sc_hd__and4_1
*CAP
1 *697:B 0.00187369
2 *696:X 0.000576241
3 *78:12 0.00275736
4 *78:8 0.00145991
5 *697:B *768:A 3.75018e-05
6 *697:B *844:A 6.80137e-05
7 *697:B *855:A 7.19567e-05
8 *697:B *129:14 4.17947e-05
9 *697:B *129:18 3.09233e-05
10 *697:B *154:48 0.00193354
11 *78:8 *752:A_N 5.78686e-05
12 *78:8 *752:B 0.000273544
13 *78:12 *779:C 0.000671
14 *78:12 *131:26 0.000307121
15 *818:RESET_B *697:B 0.000240274
16 *819:RESET_B *78:12 0.00294993
17 *830:RESET_B *78:12 0.00182425
18 *831:RESET_B *697:B 0.000122699
*RES
1 *696:X *78:8 10.605 
2 *78:8 *78:12 42.905 
3 *78:12 *697:B 31.565 
*END

*D_NET *79 0.000663021
*CONN
*I *705:A2 I *D sky130_fd_sc_hd__o31ai_1
*I *698:Y O *D sky130_fd_sc_hd__a21oi_1
*CAP
1 *705:A2 0.000136932
2 *698:Y 0.000136932
3 *705:A2 *705:A3 3.04245e-05
4 *705:A2 *746:B 0.000116853
5 *705:A2 *106:50 0.000120186
6 *705:A2 *142:58 0.000121692
*RES
1 *698:Y *705:A2 10.02 
*END

*D_NET *80 0.0177377
*CONN
*I *700:B I *D sky130_fd_sc_hd__nor2_1
*I *731:B1_N I *D sky130_fd_sc_hd__a21boi_1
*I *699:X O *D sky130_fd_sc_hd__or3b_2
*CAP
1 *700:B 0.00210338
2 *731:B1_N 0.00151401
3 *699:X 0.000636924
4 *80:14 0.00425432
5 *700:B *700:A 5.31158e-06
6 *700:B *705:B1 0.00012354
7 *700:B *721:B 0
8 *700:B *725:B1 0.000179615
9 *700:B *737:A 0.000991367
10 *700:B *752:B 0.000146855
11 *700:B *161:67 2.8218e-05
12 *700:B *162:29 0.00138109
13 *700:B *165:48 0.000153084
14 *731:B1_N *730:A 0.00123039
15 *731:B1_N *731:A1 0.000122202
16 *731:B1_N *731:A2 0.000202379
17 *731:B1_N *737:A 4.06969e-05
18 *731:B1_N *747:B 2.88051e-05
19 *731:B1_N *760:B1 9.20914e-05
20 *731:B1_N *761:B1_N 0.000167329
21 *731:B1_N *166:8 8.52845e-05
22 *731:B1_N *166:22 0
23 *80:14 *721:B 8.2315e-05
24 *80:14 *727:B1 0.00059537
25 *80:14 *736:A 1.58858e-05
26 *80:14 *780:A2_N 4.66108e-05
27 *80:14 *82:98 6.74987e-05
28 *80:14 *82:113 0.000144725
29 *80:14 *157:14 9.99887e-05
30 *695:B *700:B 0.000128336
31 *701:A *700:B 0.00104373
32 *701:A *731:B1_N 0.000170104
33 *739:A_N *731:B1_N 0.000344014
34 *817:RESET_B *80:14 0.000169548
35 *819:RESET_B *700:B 0
36 *823:RESET_B *731:B1_N 8.07502e-05
37 *75:56 *731:B1_N 0.000867661
38 *75:58 *731:B1_N 0.000394289
*RES
1 *699:X *80:14 8.32757 
2 *80:14 *731:B1_N 37.6475 
3 *80:14 *700:B 11.7177 
*END

*D_NET *81 0.0117563
*CONN
*I *726:A I *D sky130_fd_sc_hd__nor2_1
*I *702:A_N I *D sky130_fd_sc_hd__nand4b_2
*I *725:B1 I *D sky130_fd_sc_hd__a2111o_1
*I *700:Y O *D sky130_fd_sc_hd__nor2_1
*CAP
1 *726:A 0
2 *702:A_N 0.00027979
3 *725:B1 0.00126457
4 *700:Y 0
5 *81:51 0.00139553
6 *81:4 0.00238031
7 *702:A_N *726:B 8.09269e-05
8 *702:A_N *825:CLK 8.88631e-05
9 *702:A_N *130:141 9.8837e-05
10 *725:B1 *692:A 8.12462e-06
11 *725:B1 *705:B1 0.000153946
12 *725:B1 *725:A2 0.000158175
13 *725:B1 *725:C1 9.47972e-06
14 *725:B1 *752:B 0.000274608
15 *725:B1 *762:A2 6.05084e-05
16 *725:B1 *779:B 0
17 *725:B1 *796:A 0.000308055
18 *725:B1 *854:A 0.000526215
19 *725:B1 *106:26 4.82919e-05
20 *725:B1 *161:67 0
21 *725:B1 *167:16 0.00047979
22 *725:B1 *173:6 0.000129816
23 *81:51 *721:A 2.69217e-05
24 *81:51 *748:C 2.42881e-05
25 *81:51 *755:A 0.000235375
26 *81:51 *767:B 0.000575339
27 *81:51 *767:C 1.91597e-05
28 *81:51 *772:A2 0.00045755
29 *81:51 *114:26 0.000159173
30 *81:51 *121:12 0.000244842
31 *695:B *725:B1 0.00119858
32 *700:B *725:B1 0.000179615
33 *718:A2 *702:A_N 2.95708e-05
34 *820:D *725:B1 0.00055829
35 *841:D *702:A_N 0.000217077
36 *841:D *81:51 6.90485e-05
37 *57:12 *81:51 1.56002e-05
*RES
1 *700:Y *81:4 1.6 
2 *81:4 *725:B1 38.135 
3 *81:4 *81:51 26.56 
4 *81:51 *702:A_N 15.63 
5 *81:51 *726:A 1.6 
*END

*D_NET *82 0.0309748
*CONN
*I *713:C I *D sky130_fd_sc_hd__and3_1
*I *702:B I *D sky130_fd_sc_hd__nand4b_2
*I *773:A I *D sky130_fd_sc_hd__nor2_1
*I *775:A2 I *D sky130_fd_sc_hd__a21oi_1
*I *716:A2_N I *D sky130_fd_sc_hd__o2bb2a_1
*I *780:A2_N I *D sky130_fd_sc_hd__o2bb2a_1
*I *704:A3 I *D sky130_fd_sc_hd__a31o_1
*I *710:A2 I *D sky130_fd_sc_hd__a21oi_1
*I *711:C I *D sky130_fd_sc_hd__and3_1
*I *774:B I *D sky130_fd_sc_hd__xor2_1
*I *701:X O *D sky130_fd_sc_hd__clkbuf_4
*CAP
1 *713:C 0.000182294
2 *702:B 0
3 *773:A 0
4 *775:A2 0.000197579
5 *716:A2_N 0.000640373
6 *780:A2_N 0.000269924
7 *704:A3 0.000905965
8 *710:A2 0.000569686
9 *711:C 9.51072e-05
10 *774:B 0.000122429
11 *701:X 5.58022e-05
12 *82:154 0.00037384
13 *82:141 0.000751795
14 *82:126 0.00081323
15 *82:113 0.00162108
16 *82:98 0.00207233
17 *82:67 0.00201015
18 *82:46 0.00108707
19 *82:20 0.000723409
20 *82:10 0.00085198
21 *704:A3 *694:C 0.000116158
22 *704:A3 *752:B 0.000435732
23 *704:A3 *770:C 0.00013921
24 *704:A3 *817:CLK 3.00381e-05
25 *704:A3 *135:30 0.000237067
26 *704:A3 *165:48 0.000770909
27 *710:A2 *698:A2 1.72095e-05
28 *710:A2 *710:A1 5.83121e-06
29 *710:A2 *720:A 1.79536e-05
30 *710:A2 *734:A 0
31 *710:A2 *746:B 1.93834e-05
32 *710:A2 *106:50 9.48304e-05
33 *711:C *711:A 4.66108e-05
34 *711:C *760:A1 0.000188545
35 *711:C *131:20 6.31545e-05
36 *713:C *718:A1 4.66108e-05
37 *713:C *718:B1 9.50333e-05
38 *713:C *759:A 0.000461602
39 *713:C *772:B1 0.000110313
40 *716:A2_N *716:B1 0.000449199
41 *716:A2_N *740:A 0.000160081
42 *716:A2_N *128:18 0.000805196
43 *716:A2_N *128:22 0.000201407
44 *716:A2_N *130:14 3.50033e-05
45 *774:B *687:C 1.39456e-05
46 *774:B *711:A 1.23268e-05
47 *774:B *722:B 0
48 *774:B *774:A 0
49 *775:A2 *777:A 2.96334e-05
50 *775:A2 *152:67 4.77719e-05
51 *775:A2 *153:50 0.000122976
52 *780:A2_N *708:A 8.23457e-05
53 *780:A2_N *780:A1_N 2.0514e-05
54 *780:A2_N *780:B1 0.000165025
55 *780:A2_N *144:87 7.1312e-05
56 *82:10 *838:CLK 8.40269e-05
57 *82:20 *687:C 2.90051e-05
58 *82:20 *711:A 7.37129e-05
59 *82:20 *711:B 9.10613e-05
60 *82:20 *731:A2 9.12857e-06
61 *82:20 *737:B 0.000549238
62 *82:20 *760:B1 0.000410845
63 *82:20 *89:26 7.66509e-05
64 *82:46 *737:B 0.000670015
65 *82:46 *760:B1 9.21178e-05
66 *82:46 *838:CLK 0.00013404
67 *82:46 *137:27 0.000172219
68 *82:67 *735:B 0.000517105
69 *82:67 *737:B 0.00070533
70 *82:67 *837:CLK 8.3763e-05
71 *82:67 *137:27 2.06963e-05
72 *82:98 *736:A 8.82172e-05
73 *82:98 *157:14 1.1561e-05
74 *82:113 *130:12 8.23457e-05
75 *82:113 *144:66 0.00151199
76 *82:113 *144:87 0.000228235
77 *82:126 *128:18 0.000228932
78 *82:141 *690:B 4.41506e-05
79 *82:141 *726:B 0.000187611
80 *82:141 *772:A1 8.41703e-06
81 *82:141 *83:18 5.54546e-05
82 *82:141 *91:40 7.96104e-06
83 *82:141 *128:18 0.0003516
84 *82:141 *130:141 0.000111149
85 *82:154 *690:B 2.49909e-05
86 *82:154 *702:C 0.000204962
87 *82:154 *83:18 0.000475883
88 *82:154 *130:141 3.32198e-05
89 *82:154 *134:25 0.000338691
90 *695:B *704:A3 0.00010163
91 *701:A *704:A3 0.000119351
92 *718:A2 *713:C 8.23457e-05
93 *718:A2 *82:141 5.06809e-05
94 *813:D *82:98 5.58553e-05
95 *814:D *82:141 0.000835067
96 *817:D *704:A3 3.25831e-05
97 *817:RESET_B *704:A3 0
98 *822:D *82:20 0.000152482
99 *830:RESET_B *710:A2 1.56428e-05
100 *831:D *710:A2 9.82762e-05
101 *833:D *774:B 4.84629e-05
102 *837:RESET_B *775:A2 0.000184036
103 *838:RESET_B *82:10 0.0001383
104 *22:14 *716:A2_N 2.15594e-05
105 *22:14 *82:141 6.26852e-05
106 *33:16 *82:20 0.000306247
107 *68:20 *716:A2_N 0.000985885
108 *68:20 *82:126 0.000220401
109 *68:20 *82:141 0.00089827
110 *77:22 *704:A3 1.51856e-05
111 *77:58 *82:141 8.23457e-05
112 *77:58 *82:154 3.74161e-05
113 *80:14 *780:A2_N 4.66108e-05
114 *80:14 *82:98 6.74987e-05
115 *80:14 *82:113 0.000144725
*RES
1 *701:X *82:10 5.1 
2 *82:10 *82:20 17.155 
3 *82:20 *774:B 5.745 
4 *82:20 *711:C 6.0975 
5 *82:10 *82:46 8.1375 
6 *82:46 *710:A2 6.25277 
7 *82:46 *82:67 10.6475 
8 *82:67 *704:A3 28.47 
9 *82:67 *82:98 13.51 
10 *82:98 *780:A2_N 5.62 
11 *82:98 *82:113 19.01 
12 *82:113 *716:A2_N 20.445 
13 *82:113 *82:126 2.655 
14 *82:126 *775:A2 7.845 
15 *82:126 *82:141 21.005 
16 *82:141 *773:A 1.6 
17 *82:141 *82:154 10.93 
18 *82:154 *702:B 1.6 
19 *82:154 *713:C 7.525 
*END

*D_NET *83 0.0169911
*CONN
*I *709:A2 I *D sky130_fd_sc_hd__a21oi_1
*I *705:A3 I *D sky130_fd_sc_hd__o31ai_1
*I *702:Y O *D sky130_fd_sc_hd__nand4b_2
*CAP
1 *709:A2 3.45467e-05
2 *705:A3 0.00158347
3 *702:Y 0.00227231
4 *83:18 0.00389033
5 *705:A3 *695:A 1.19928e-05
6 *705:A3 *705:A1 7.14699e-05
7 *705:A3 *131:24 0.000198939
8 *705:A3 *164:87 8.40213e-05
9 *705:A3 *168:88 0.00219875
10 *709:A2 *695:A 4.87465e-06
11 *709:A2 *770:C 0
12 *83:18 *715:B 0
13 *83:18 *738:A3 0.00165044
14 *83:18 *740:A 5.96546e-06
15 *83:18 *756:A_N 3.65956e-05
16 *83:18 *762:A2 0.000306269
17 *83:18 *770:B 2.78681e-05
18 *83:18 *772:A1 0
19 *83:18 *842:A 3.60648e-06
20 *83:18 *110:43 5.60252e-05
21 *83:18 *123:16 0.000993202
22 *83:18 *130:141 0.000578501
23 *83:18 *132:81 0
24 *83:18 *134:25 1.72133e-05
25 *83:18 *156:18 7.53186e-05
26 *695:D *705:A3 0.000123858
27 *701:A *83:18 0.000131533
28 *705:A2 *705:A3 3.04245e-05
29 *814:D *83:18 0.000608522
30 *817:D *83:18 2.28347e-05
31 *824:D *83:18 0
32 *22:14 *83:18 0.000778387
33 *75:25 *705:A3 1.05984e-05
34 *75:56 *705:A3 0.000110216
35 *75:56 *83:18 5.04569e-05
36 *77:14 *705:A3 0.000343581
37 *77:14 *83:18 0.000147682
38 *82:141 *83:18 5.54546e-05
39 *82:154 *83:18 0.000475883
*RES
1 *702:Y *83:18 27.6326 
2 *83:18 *705:A3 42.905 
3 *83:18 *709:A2 2.215 
*END

*D_NET *84 0.00647554
*CONN
*I *704:B1 I *D sky130_fd_sc_hd__a31o_1
*I *703:Y O *D sky130_fd_sc_hd__inv_2
*CAP
1 *704:B1 0.00141186
2 *703:Y 0.00141186
3 *704:B1 *692:D 0.000293803
4 *704:B1 *703:A 2.49909e-05
5 *704:B1 *734:B 0.000739237
6 *704:B1 *762:B1 0.00013385
7 *704:B1 *764:A_N 1.88656e-05
8 *704:B1 *790:A 0.00032112
9 *704:B1 *143:55 6.33103e-05
10 *704:B1 *150:10 0.00116525
11 *704:B1 *154:48 7.15457e-05
12 *704:B1 *166:22 0.00040698
13 *704:B1 *166:63 0.000220452
14 *836:D *704:B1 0.00019242
*RES
1 *703:Y *704:B1 35.7 
*END

*D_NET *85 0.0067375
*CONN
*I *705:B1 I *D sky130_fd_sc_hd__o31ai_1
*I *704:X O *D sky130_fd_sc_hd__a31o_1
*CAP
1 *705:B1 0.00151578
2 *704:X 0.00151578
3 *705:B1 *710:B1 4.13171e-05
4 *705:B1 *727:B1 0.000452177
5 *705:B1 *730:A 0.0012504
6 *705:B1 *731:A2 5.8842e-05
7 *705:B1 *741:A 4.8854e-05
8 *705:B1 *762:A2 5.8023e-05
9 *705:B1 *815:CLK 0.000120655
10 *705:B1 *855:A 0.000147683
11 *705:B1 *95:37 1.68169e-05
12 *705:B1 *143:26 1.53142e-05
13 *705:B1 *149:8 0.000141632
14 *705:B1 *149:24 0.000459961
15 *705:B1 *166:22 0
16 *705:B1 *167:16 8.04254e-06
17 *695:B *705:B1 8.33066e-06
18 *700:B *705:B1 0.00012354
19 *725:B1 *705:B1 0.000153946
20 *813:D *705:B1 7.73464e-05
21 *815:D *705:B1 0.00015326
22 *75:56 *705:B1 0.000369791
*RES
1 *704:X *705:B1 40.515 
*END

*D_NET *86 0.00925602
*CONN
*I *707:B I *D sky130_fd_sc_hd__xor2_1
*I *709:B1 I *D sky130_fd_sc_hd__a21oi_1
*I *706:X O *D sky130_fd_sc_hd__and4_1
*CAP
1 *707:B 7.41197e-05
2 *709:B1 0.00221976
3 *706:X 0
4 *86:4 0.00229388
5 *707:B *690:C 9.56774e-05
6 *707:B *707:A 8.49205e-05
7 *707:B *773:B 0.000113797
8 *709:B1 *690:B 0.000912865
9 *709:B1 *715:B 0
10 *709:B1 *748:B 4.21973e-05
11 *709:B1 *776:B 4.82919e-05
12 *709:B1 *824:CLK 8.49205e-05
13 *709:B1 *842:A 0
14 *709:B1 *91:40 0.000107758
15 *709:B1 *116:20 0.00015639
16 *709:B1 *126:32 0.000251524
17 *709:B1 *140:30 0.00027194
18 *709:B1 *167:16 0.000653478
19 *817:D *709:B1 0.000258503
20 *824:D *709:B1 5.71907e-05
21 *828:RESET_B *707:B 2.42236e-05
22 *77:22 *709:B1 0.000624837
23 *77:30 *709:B1 0.00085476
24 *77:86 *709:B1 2.4997e-05
*RES
1 *706:X *86:4 1.6 
2 *86:4 *709:B1 49.88 
3 *86:4 *707:B 7.775 
*END

*D_NET *87 0.00778027
*CONN
*I *709:A1 I *D sky130_fd_sc_hd__a21oi_1
*I *728:A I *D sky130_fd_sc_hd__nand2_1
*I *708:Y O *D sky130_fd_sc_hd__inv_2
*CAP
1 *709:A1 0.00113019
2 *728:A 0.000505704
3 *708:Y 0
4 *87:6 0.00163589
5 *709:A1 *689:A 0.000297479
6 *709:A1 *695:A 0.000103626
7 *709:A1 *762:A1 7.30525e-05
8 *709:A1 *762:A2 4.41506e-05
9 *709:A1 *770:A 1.06624e-05
10 *709:A1 *770:C 1.19928e-05
11 *709:A1 *770:D 4.66108e-05
12 *709:A1 *818:CLK 8.23457e-05
13 *709:A1 *110:16 0.000302067
14 *709:A1 *132:56 0.000754369
15 *709:A1 *157:14 0.00017649
16 *728:A *688:D 0.000119246
17 *728:A *708:A 0.000275282
18 *728:A *743:B 9.87116e-05
19 *728:A *789:A 7.05553e-05
20 *728:A *848:A 0.000120655
21 *728:A *129:49 2.32597e-05
22 *728:A *132:6 3.83194e-05
23 *728:A *132:12 4.66742e-05
24 *728:A *132:56 8.53113e-06
25 *728:A *141:37 0.000173489
26 *728:A *157:14 0.000889578
27 *728:A *158:20 8.73317e-05
28 *813:D *709:A1 2.22652e-05
29 *815:RESET_B *728:A 0.000631751
*RES
1 *708:Y *87:6 3.6 
2 *87:6 *728:A 20.61 
3 *87:6 *709:A1 22.98 
*END

*D_NET *88 0.00216699
*CONN
*I *712:A I *D sky130_fd_sc_hd__nor2_1
*I *710:Y O *D sky130_fd_sc_hd__a21oi_1
*CAP
1 *712:A 0.000557012
2 *710:Y 0.000557012
3 *712:A *694:D 0.000553739
4 *712:A *710:B1 0.000122797
5 *712:A *720:A 0
6 *712:A *746:B 0
7 *712:A *142:45 0.000190532
8 *712:A *143:26 0.000100082
9 *830:RESET_B *712:A 8.58181e-05
*RES
1 *710:Y *712:A 19.5 
*END

*D_NET *89 0.0138291
*CONN
*I *712:B I *D sky130_fd_sc_hd__nor2_1
*I *714:A2 I *D sky130_fd_sc_hd__o21ba_1
*I *711:X O *D sky130_fd_sc_hd__and3_1
*CAP
1 *712:B 0.000225923
2 *714:A2 0.000657488
3 *711:X 5.26101e-05
4 *89:26 0.00200444
5 *89:8 0.00162549
6 *712:B *720:A 0.000746441
7 *712:B *823:CLK 0.000125005
8 *712:B *131:20 0.000250565
9 *714:A2 *714:A1 0.000288635
10 *714:A2 *714:B1_N 8.35068e-05
11 *714:A2 *761:A1 0.000127185
12 *714:A2 *772:A1 0.000196045
13 *714:A2 *814:CLK 0.000171009
14 *714:A2 *126:32 9.86815e-06
15 *714:A2 *136:32 0.000445589
16 *714:A2 *151:14 0.000448804
17 *714:A2 *168:60 6.60042e-05
18 *89:8 *823:CLK 0.000157429
19 *89:26 *689:A 3.64998e-06
20 *89:26 *699:B 4.73798e-05
21 *89:26 *714:A1 1.48096e-05
22 *89:26 *724:B 0.000523738
23 *89:26 *727:B1 0.00122371
24 *89:26 *760:A1 0.000157049
25 *89:26 *768:A 0.000674193
26 *89:26 *768:B 0.00048681
27 *89:26 *769:A1 0.00017968
28 *89:26 *854:A 9.30717e-05
29 *89:26 *856:A 0.000849996
30 *89:26 *110:130 0.000628727
31 *89:26 *129:102 1.56428e-05
32 *89:26 *129:109 9.1682e-06
33 *89:26 *142:136 0.000200419
34 *89:26 *158:20 1.74678e-05
35 *739:A_N *712:B 0.000303684
36 *818:RESET_B *89:26 0.000208892
37 *820:D *89:26 2.94708e-05
38 *820:RESET_B *714:A2 4.01527e-05
39 *822:D *712:B 0.000132842
40 *822:D *89:8 2.92496e-05
41 *822:D *89:26 4.66108e-05
42 *18:20 *89:8 6.91307e-05
43 *49:8 *89:26 8.48377e-05
44 *82:20 *89:26 7.66509e-05
*RES
1 *711:X *89:8 5.49 
2 *89:8 *89:26 47.105 
3 *89:26 *714:A2 22.57 
4 *89:8 *712:B 12.24 
*END

*D_NET *90 0.0118652
*CONN
*I *716:B1 I *D sky130_fd_sc_hd__o2bb2a_1
*I *714:B1_N I *D sky130_fd_sc_hd__o21ba_1
*I *713:X O *D sky130_fd_sc_hd__and3_1
*CAP
1 *716:B1 0.00136679
2 *714:B1_N 4.31807e-05
3 *713:X 0.00045072
4 *90:12 0.00186069
5 *714:B1_N *772:A1 3.83194e-05
6 *714:B1_N *168:60 0.000156769
7 *716:B1 *688:A 0.0010152
8 *716:B1 *688:B 0.000122325
9 *716:B1 *716:A1_N 2.53694e-05
10 *716:B1 *716:B2 6.156e-05
11 *716:B1 *810:A 0.000524129
12 *716:B1 *128:43 0.000255392
13 *716:B1 *128:54 3.57349e-05
14 *716:B1 *151:14 0.001216
15 *716:B1 *152:50 3.62583e-06
16 *716:B1 *154:27 9.72473e-05
17 *90:12 *713:A 0.000159898
18 *90:12 *772:A1 0.000138938
19 *90:12 *129:129 0.000152595
20 *90:12 *152:67 0.000652384
21 *90:12 *153:33 0.000328206
22 *90:12 *168:60 0.000262813
23 *714:A2 *714:B1_N 8.35068e-05
24 *716:A2_N *716:B1 0.000449199
25 *813:RESET_B *716:B1 1.95533e-05
26 *822:RESET_B *716:B1 0.000940817
27 *43:38 *716:B1 0.00115614
28 *57:12 *90:12 0.000248109
*RES
1 *713:X *90:12 19.7 
2 *90:12 *714:B1_N 3.085 
3 *90:12 *716:B1 45.83 
*END

*D_NET *91 0.0203574
*CONN
*I *718:A1 I *D sky130_fd_sc_hd__a21o_1
*I *716:A1_N I *D sky130_fd_sc_hd__o2bb2a_1
*I *715:X O *D sky130_fd_sc_hd__and3_1
*CAP
1 *718:A1 0.00139093
2 *716:A1_N 0.00292677
3 *715:X 0.00235993
4 *91:40 0.00667763
5 *716:A1_N *707:A 0.000125228
6 *716:A1_N *716:B2 7.95174e-06
7 *716:A1_N *723:A 0.000127788
8 *716:A1_N *740:A 0.000670909
9 *716:A1_N *753:A 0
10 *716:A1_N *764:B 0.000139035
11 *716:A1_N *772:A1 0.000325005
12 *716:A1_N *95:25 0
13 *716:A1_N *141:79 0.000169585
14 *716:A1_N *169:54 0.000111029
15 *718:A1 *726:B 4.01535e-05
16 *718:A1 *753:A 0
17 *718:A1 *772:A1 0.000669779
18 *718:A1 *772:B1 2.05568e-05
19 *718:A1 *825:CLK 2.24912e-05
20 *718:A1 *134:31 9.03537e-05
21 *91:40 *715:A 0.00158346
22 *91:40 *715:C 0.00044328
23 *91:40 *726:B 1.88904e-05
24 *91:40 *762:B1 0.00106881
25 *91:40 *767:A 0.000149554
26 *91:40 *772:A1 0
27 *91:40 *846:A 8.73389e-06
28 *91:40 *130:107 6.73575e-05
29 *91:40 *136:32 1.56428e-05
30 *709:B1 *91:40 0.000107758
31 *713:C *718:A1 4.66108e-05
32 *716:B1 *716:A1_N 2.53694e-05
33 *821:RESET_B *716:A1_N 0.000315007
34 *832:RESET_B *718:A1 0
35 *834:D *91:40 0
36 *836:RESET_B *91:40 0.00023765
37 *839:D *716:A1_N 4.18147e-05
38 *29:18 *91:40 8.81358e-05
39 *43:38 *91:40 0
40 *73:12 *716:A1_N 0.000256226
41 *82:141 *91:40 7.96104e-06
*RES
1 *715:X *91:40 46.3456 
2 *91:40 *716:A1_N 10.4754 
3 *91:40 *718:A1 7.86437 
*END

*D_NET *92 0.0191692
*CONN
*I *719:A I *D sky130_fd_sc_hd__and2_1
*I *721:B I *D sky130_fd_sc_hd__xnor2_1
*I *717:Y O *D sky130_fd_sc_hd__nand2_1
*CAP
1 *719:A 0.000734409
2 *721:B 0.00387001
3 *717:Y 0.000843445
4 *92:14 0.00544786
5 *719:A *719:B 0.000128231
6 *719:A *726:B 0
7 *719:A *95:25 0
8 *719:A *130:18 0
9 *719:A *159:10 0.000285984
10 *719:A *159:23 0.000492996
11 *719:A *164:30 0.00047339
12 *721:B *727:B1 7.24797e-05
13 *721:B *734:A 0
14 *721:B *737:A 0
15 *721:B *738:A1 0.000127645
16 *721:B *755:B 7.77522e-05
17 *721:B *761:A1 0
18 *721:B *764:A_N 0.000660067
19 *721:B *778:B 8.35068e-05
20 *721:B *829:CLK 1.88656e-05
21 *721:B *855:A 0.00107685
22 *721:B *114:26 0.00140938
23 *721:B *149:24 0.000657795
24 *721:B *158:20 0.000114662
25 *721:B *161:67 1.12156e-05
26 *721:B *162:29 0
27 *92:14 *738:A2 9.10613e-05
28 *92:14 *738:B1 0.00012079
29 *92:14 *855:A 0.00091061
30 *92:14 *144:18 0.000133913
31 *700:B *721:B 0
32 *717:B *92:14 2.14569e-05
33 *817:RESET_B *721:B 2.22315e-05
34 *818:RESET_B *721:B 0.000246763
35 *819:RESET_B *721:B 0
36 *822:RESET_B *719:A 0.000417112
37 *824:D *719:A 5.72486e-05
38 *835:D *719:A 6.98266e-05
39 *838:RESET_B *719:A 0.000233294
40 *61:24 *719:A 0.000176072
41 *80:14 *721:B 8.2315e-05
*RES
1 *717:Y *92:14 19.67 
2 *92:14 *721:B 28.0911 
3 *92:14 *719:A 25.895 
*END

*D_NET *93 0.0127959
*CONN
*I *719:B I *D sky130_fd_sc_hd__and2_1
*I *718:X O *D sky130_fd_sc_hd__a21o_1
*CAP
1 *719:B 0.00296072
2 *718:X 0.00296072
3 *719:B *718:B1 0.000101789
4 *719:B *743:A 1.88602e-05
5 *719:B *753:A 0.00378953
6 *719:B *825:CLK 0.000101789
7 *719:B *134:31 7.60474e-05
8 *719:B *152:35 0
9 *719:B *159:23 0.000229339
10 *719:A *719:B 0.000128231
11 *824:D *719:B 0.000106321
12 *832:RESET_B *719:B 0.00221619
13 *68:20 *719:B 0.000106338
*RES
1 *718:X *719:B 19.4326 
*END

*D_NET *94 0.00683494
*CONN
*I *720:A I *D sky130_fd_sc_hd__buf_1
*I *719:X O *D sky130_fd_sc_hd__and2_1
*CAP
1 *720:A 0.00154635
2 *719:X 0.00154635
3 *720:A *746:B 0.000928468
4 *720:A *768:C 2.23485e-05
5 *720:A *771:A1_N 0.000112123
6 *720:A *771:B2 0.000193801
7 *720:A *106:50 0.00018812
8 *720:A *131:20 0.000103745
9 *720:A *143:26 0.000104262
10 *720:A *164:30 0.00044734
11 *710:A2 *720:A 1.79536e-05
12 *712:A *720:A 0
13 *712:B *720:A 0.000746441
14 *739:A_N *720:A 0.000350464
15 *831:D *720:A 7.06865e-05
16 *33:16 *720:A 0.0004565
*RES
1 *719:X *720:A 44.755 
*END

*D_NET *95 0.0229348
*CONN
*I *726:B I *D sky130_fd_sc_hd__nor2_1
*I *728:B I *D sky130_fd_sc_hd__nand2_1
*I *731:A2 I *D sky130_fd_sc_hd__a21boi_1
*I *723:B I *D sky130_fd_sc_hd__nand2_1
*I *722:Y O *D sky130_fd_sc_hd__nor2_2
*CAP
1 *726:B 0.00130867
2 *728:B 0
3 *731:A2 0.00131771
4 *723:B 0
5 *722:Y 0.000504255
6 *95:37 0.0029904
7 *95:25 0.00388544
8 *95:8 0.00140833
9 *726:B *690:D 4.21244e-05
10 *726:B *753:A 0.000134502
11 *726:B *772:A1 1.87841e-05
12 *726:B *825:CLK 9.10224e-05
13 *726:B *130:12 0.000675586
14 *726:B *130:14 0.000316818
15 *731:A2 *694:D 0
16 *731:A2 *698:A2 0
17 *731:A2 *730:A 2.54436e-05
18 *731:A2 *737:B 0.000163844
19 *731:A2 *747:B 0.000203473
20 *731:A2 *760:B1 0
21 *731:A2 *761:B1_N 5.8678e-05
22 *731:A2 *143:26 2.42236e-05
23 *731:A2 *158:20 0.000163277
24 *731:A2 *165:10 0.000122002
25 *731:A2 *166:8 8.52845e-05
26 *731:A2 *166:14 0
27 *731:A2 *166:22 0.000250979
28 *95:8 *722:A 0.000986269
29 *95:8 *856:A 0
30 *95:8 *164:30 0.000237713
31 *95:25 *722:A 3.23112e-05
32 *95:25 *130:14 0.000138434
33 *95:25 *130:18 0.000170867
34 *95:37 *698:A2 0.000539729
35 *95:37 *756:A_N 0
36 *95:37 *855:A 1.92979e-05
37 *95:37 *146:53 1.8935e-05
38 *95:37 *152:35 0.000222553
39 *95:37 *166:22 1.1071e-05
40 AN[0] *95:8 0
41 seg[6] *95:8 0
42 *701:A *731:A2 4.89232e-05
43 *702:A_N *726:B 8.09269e-05
44 *705:B1 *731:A2 5.8842e-05
45 *705:B1 *95:37 1.68169e-05
46 *716:A1_N *95:25 0
47 *718:A1 *726:B 4.01535e-05
48 *718:A2 *726:B 0.000116998
49 *719:A *726:B 0
50 *719:A *95:25 0
51 *731:B1_N *731:A2 0.000202379
52 *831:D *95:37 0.000667883
53 *841:D *726:B 0.000692593
54 *843:A *731:A2 6.84147e-05
55 *33:16 *731:A2 0.000264366
56 *61:24 *726:B 0.00295373
57 *61:24 *95:37 0.000719872
58 *64:16 *95:8 0
59 *64:16 *95:25 0
60 *68:20 *726:B 0.000619245
61 *82:20 *731:A2 9.12857e-06
62 *82:141 *726:B 0.000187611
63 *91:40 *726:B 1.88904e-05
*RES
1 *722:Y *95:8 16.455 
2 *95:8 *723:B 3.6 
3 *95:8 *95:25 6.36583 
4 *95:25 *95:37 5.30017 
5 *95:37 *731:A2 23.7916 
6 *95:37 *728:B 3.6 
7 *95:25 *726:B 46.9275 
*END

*D_NET *96 0.0151368
*CONN
*I *727:B1 I *D sky130_fd_sc_hd__o21a_1
*I *724:B I *D sky130_fd_sc_hd__nor2_1
*I *723:Y O *D sky130_fd_sc_hd__nand2_1
*CAP
1 *727:B1 0.00145583
2 *724:B 0.000493992
3 *723:Y 0.00153485
4 *96:12 0.00348468
5 *724:B *757:A 2.14995e-05
6 *724:B *768:A 9.0682e-05
7 *724:B *768:B 0.000727836
8 *724:B *768:C 1.90838e-05
9 *724:B *768:D 2.01841e-05
10 *724:B *97:16 0.00012398
11 *724:B *110:130 8.67577e-05
12 *727:B1 *727:A2 8.52845e-05
13 *727:B1 *737:A 0.000104111
14 *727:B1 *738:A1 0.000112736
15 *727:B1 *764:A_N 0
16 *727:B1 *768:B 0.00121587
17 *727:B1 *784:A 0.00074256
18 *727:B1 *142:20 0.000118081
19 *727:B1 *145:16 0.000305529
20 *96:12 *723:A 1.83847e-05
21 *96:12 *743:A 0.000375343
22 *96:12 *760:B1 0.00022645
23 *96:12 *827:CLK 7.00322e-05
24 *96:12 *146:53 5.98665e-05
25 *96:12 *154:8 6.62735e-05
26 *705:B1 *727:B1 0.000452177
27 *721:B *727:B1 7.24797e-05
28 *813:D *727:B1 0.000450528
29 *827:D *96:12 0.000145643
30 *835:RESET_B *96:12 0.000113226
31 *80:14 *727:B1 0.00059537
32 *89:26 *724:B 0.000523738
33 *89:26 *727:B1 0.00122371
*RES
1 *723:Y *96:12 23.49 
2 *96:12 *724:B 16.02 
3 *96:12 *727:B1 33.2579 
*END

*D_NET *97 0.0107253
*CONN
*I *729:C I *D sky130_fd_sc_hd__or3_1
*I *725:C1 I *D sky130_fd_sc_hd__a2111o_1
*I *724:Y O *D sky130_fd_sc_hd__nor2_1
*CAP
1 *729:C 0
2 *725:C1 0.00129676
3 *724:Y 0.000929161
4 *97:16 0.00222592
5 *725:C1 *725:A1 0.000266259
6 *725:C1 *725:A2 4.0843e-05
7 *725:C1 *725:D1 4.66108e-05
8 *725:C1 *733:B 0.000274608
9 *725:C1 *750:A 0.000384394
10 *725:C1 *817:CLK 0.000183145
11 *725:C1 *820:CLK 0.000119866
12 *725:C1 *854:A 5.9067e-05
13 *725:C1 *145:18 0.000109786
14 *725:C1 *158:20 0.00033685
15 *725:C1 *166:63 8.60913e-05
16 *725:C1 *167:16 9.44681e-05
17 *725:C1 *173:6 9.35688e-05
18 *97:16 *724:A 9.58678e-06
19 *97:16 *729:A 0.000185411
20 *97:16 *734:B 0.000134613
21 *97:16 *757:A 0.00015368
22 *97:16 *768:B 0.00102246
23 *97:16 *768:C 4.88428e-05
24 *97:16 *771:A1_N 0.000421889
25 *97:16 *771:A2_N 0.000264133
26 *97:16 *774:A 9.54469e-05
27 *97:16 *110:126 0.000402587
28 *97:16 *145:18 0.000165591
29 *97:16 *152:35 0.000117014
30 *97:16 *154:48 0.000479916
31 *724:B *97:16 0.00012398
32 *725:B1 *725:C1 9.47972e-06
33 *831:D *97:16 7.24846e-05
34 *75:56 *725:C1 0.00047082
*RES
1 *724:Y *97:16 34.43 
2 *97:16 *725:C1 32.655 
3 *97:16 *729:C 1.6 
*END

*D_NET *98 0.00741484
*CONN
*I *730:A I *D sky130_fd_sc_hd__clkbuf_1
*I *729:X O *D sky130_fd_sc_hd__or3_1
*CAP
1 *730:A 0.00164965
2 *729:X 0.00164965
3 *730:A *737:A 0.000118136
4 *730:A *743:A 0.000105487
5 *730:A *760:B1 4.08514e-05
6 *730:A *761:B1_N 6.59161e-05
7 *730:A *110:16 4.77757e-05
8 *730:A *110:126 0.000120407
9 *730:A *143:26 5.4003e-05
10 *730:A *166:63 0.000523653
11 *705:B1 *730:A 0.0012504
12 *731:A2 *730:A 2.54436e-05
13 *731:B1_N *730:A 0.00123039
14 *741:B *730:A 0.000300937
15 *837:D *730:A 2.65814e-06
16 *75:56 *730:A 0.000229469
*RES
1 *729:X *730:A 42.39 
*END

*D_NET *99 0.012424
*CONN
*I *735:A I *D sky130_fd_sc_hd__and2_1
*I *737:B I *D sky130_fd_sc_hd__xnor2_1
*I *733:Y O *D sky130_fd_sc_hd__nand2_1
*CAP
1 *735:A 1.85694e-05
2 *737:B 0.000869483
3 *733:Y 0.00111022
4 *99:14 0.00199828
5 *735:A *817:CLK 9.53428e-06
6 *737:B *735:B 8.52522e-05
7 *737:B *745:B 2.14921e-05
8 *737:B *752:B 0.00032742
9 *737:B *817:CLK 2.75229e-05
10 *737:B *158:20 0.000854245
11 *737:B *165:48 0.00115838
12 *99:14 *689:A 0.000137996
13 *99:14 *715:C 4.54851e-05
14 *99:14 *733:B 0.000152297
15 *99:14 *736:A 0.000763094
16 *99:14 *768:B 0.000522693
17 *99:14 *772:A1 3.82072e-05
18 *99:14 *817:CLK 0.000856247
19 *99:14 *109:14 8.34281e-06
20 *99:14 *133:10 7.9965e-05
21 *99:14 *135:14 4.41506e-05
22 *99:14 *163:24 0.000983291
23 *731:A2 *737:B 0.000163844
24 *822:D *737:B 0.000107535
25 *825:RESET_B *99:14 9.37731e-05
26 *33:16 *737:B 2.21074e-05
27 *82:20 *737:B 0.000549238
28 *82:46 *737:B 0.000670015
29 *82:67 *737:B 0.00070533
*RES
1 *733:Y *99:14 31.7 
2 *99:14 *737:B 36.29 
3 *99:14 *735:A 1.96 
*END

*D_NET *100 0.00364088
*CONN
*I *735:B I *D sky130_fd_sc_hd__and2_1
*I *734:X O *D sky130_fd_sc_hd__or2_1
*CAP
1 *735:B 0.000559737
2 *734:X 0.000559737
3 *735:B *710:A1 6.04372e-05
4 *735:B *746:B 0.000121034
5 *735:B *752:B 0.000472403
6 *735:B *837:CLK 0.000795209
7 *735:B *167:16 0.000353553
8 *701:A *735:B 0.000116416
9 *737:B *735:B 8.52522e-05
10 *82:67 *735:B 0.000517105
*RES
1 *734:X *735:B 23.805 
*END

*D_NET *101 0.00599506
*CONN
*I *736:A I *D sky130_fd_sc_hd__clkbuf_1
*I *735:X O *D sky130_fd_sc_hd__and2_1
*CAP
1 *736:A 0.00124333
2 *735:X 0.00124333
3 *736:A *756:A_N 0.000106321
4 *736:A *768:C 0.00162963
5 *736:A *771:B2 0.000148555
6 *736:A *820:CLK 0.000263289
7 *736:A *110:16 4.17378e-05
8 *736:A *141:37 0.00033014
9 *736:A *143:90 2.75145e-05
10 *736:A *157:14 9.40179e-05
11 *80:14 *736:A 1.58858e-05
12 *82:98 *736:A 8.82172e-05
13 *99:14 *736:A 0.000763094
*RES
1 *735:X *736:A 34.74 
*END

*D_NET *102 0.00454217
*CONN
*I *739:B I *D sky130_fd_sc_hd__and2b_1
*I *738:X O *D sky130_fd_sc_hd__a31o_1
*CAP
1 *739:B 0.00087668
2 *738:X 0.00087668
3 *739:B *738:B1 0.000484352
4 *739:B *740:A 0.000263443
5 *739:B *764:A_N 0.000512328
6 *739:B *121:12 5.79947e-05
7 *22:14 *739:B 0.00147069
*RES
1 *738:X *739:B 29.235 
*END

*D_NET *103 0.0143285
*CONN
*I *740:A I *D sky130_fd_sc_hd__clkbuf_1
*I *739:X O *D sky130_fd_sc_hd__and2b_1
*CAP
1 *740:A 0.00497723
2 *739:X 0.00497723
3 *740:A *725:A2 1.59888e-05
4 *740:A *733:B 0.000199724
5 *740:A *738:A3 0.000654735
6 *740:A *753:A 0
7 *740:A *764:A_N 0.000306421
8 *740:A *764:B 0.000311314
9 *740:A *770:C 0.000489617
10 *740:A *128:18 0.000174282
11 *740:A *149:24 0
12 *740:A *165:48 3.30156e-05
13 *740:A *172:18 3.92416e-05
14 *701:A *740:A 3.99277e-06
15 *716:A1_N *740:A 0.000670909
16 *716:A2_N *740:A 0.000160081
17 *739:B *740:A 0.000263443
18 *18:20 *740:A 0.000726095
19 *22:14 *740:A 0.000305462
20 *77:14 *740:A 1.37819e-05
21 *83:18 *740:A 5.96546e-06
*RES
1 *739:X *740:A 20.0331 
*END

*D_NET *104 0.00706293
*CONN
*I *745:B I *D sky130_fd_sc_hd__nor2_1
*I *743:A I *D sky130_fd_sc_hd__nor2_1
*I *741:X O *D sky130_fd_sc_hd__and2_1
*CAP
1 *745:B 0.000215554
2 *743:A 0.00190882
3 *741:X 0
4 *104:6 0.00212438
5 *743:A *743:B 6.22295e-05
6 *743:A *758:B 6.63219e-06
7 *743:A *760:B1 0.000277791
8 *743:A *787:A 0
9 *743:A *833:CLK 2.75229e-05
10 *743:A *158:20 7.00225e-05
11 *743:A *165:10 7.4027e-05
12 *745:B *710:A1 4.77807e-05
13 *745:B *801:A 4.77807e-05
14 *745:B *158:20 0.000518303
15 *745:B *165:10 0.000255433
16 *745:B *165:21 0.000303573
17 *745:B *165:48 9.12494e-06
18 *719:B *743:A 1.88602e-05
19 *730:A *743:A 0.000105487
20 *737:B *745:B 2.14921e-05
21 *817:RESET_B *743:A 0
22 *821:D *743:A 6.69608e-06
23 *826:D *743:A 0.000586084
24 *96:12 *743:A 0.000375343
*RES
1 *741:X *104:6 3.6 
2 *104:6 *743:A 34.03 
3 *104:6 *745:B 10.785 
*END

*D_NET *105 0.00580517
*CONN
*I *743:B I *D sky130_fd_sc_hd__nor2_1
*I *742:Y O *D sky130_fd_sc_hd__nor2_1
*CAP
1 *743:B 0.00157195
2 *742:Y 0.00157195
3 *743:B *688:D 0.000995292
4 *743:B *778:B 0
5 *743:B *787:A 0.000222869
6 *743:B *789:A 8.91174e-06
7 *743:B *848:A 0.000120655
8 *743:B *146:53 0.000253543
9 *728:A *743:B 9.87116e-05
10 *742:B *743:B 1.77665e-05
11 *743:A *743:B 6.22295e-05
12 *821:D *743:B 4.89395e-05
13 *826:D *743:B 0.000832351
*RES
1 *742:Y *743:B 33.045 
*END

*D_NET *106 0.0206146
*CONN
*I *751:A2 I *D sky130_fd_sc_hd__a21o_1
*I *746:A I *D sky130_fd_sc_hd__nor2_1
*I *747:B I *D sky130_fd_sc_hd__xor2_1
*I *744:X O *D sky130_fd_sc_hd__and3_2
*CAP
1 *751:A2 0.000561668
2 *746:A 3.90518e-05
3 *747:B 0.00239036
4 *744:X 0.00086218
5 *106:50 0.00359242
6 *106:26 0.00258686
7 *746:A *746:B 8.52883e-05
8 *746:A *856:A 6.80137e-05
9 *747:B *694:D 0
10 *747:B *731:A1 5.69239e-05
11 *747:B *746:B 3.02702e-05
12 *747:B *747:A 4.63995e-05
13 *747:B *760:A3 0
14 *747:B *857:A 9.12494e-06
15 *747:B *142:58 8.15467e-05
16 *751:A2 *694:C 0.00026476
17 *751:A2 *751:A1 4.82863e-05
18 *751:A2 *751:B1 0.00014356
19 *751:A2 *144:87 0.000314028
20 *106:26 *725:A2 3.83194e-05
21 *106:26 *842:A 0
22 *106:26 *144:87 5.83121e-06
23 *106:26 *145:16 0.000185398
24 *106:26 *145:91 0.000306161
25 *106:26 *164:87 0.000426575
26 *106:26 *170:16 0
27 *106:50 *710:A1 0.00013642
28 *106:50 *734:B 5.74784e-06
29 *106:50 *746:B 0.000634396
30 *106:50 *801:A 1.42511e-05
31 *106:50 *142:58 1.61461e-05
32 *106:50 *143:34 5.89646e-05
33 *106:50 *143:55 0.000178569
34 *106:50 *175:10 0.000416582
35 *695:D *106:26 0.000549997
36 *705:A2 *106:50 0.000120186
37 *710:A2 *106:50 9.48304e-05
38 *720:A *106:50 0.00018812
39 *725:B1 *106:26 4.82919e-05
40 *731:A2 *747:B 0.000203473
41 *731:B1_N *747:B 2.88051e-05
42 *823:D *747:B 0.00196227
43 *823:RESET_B *747:B 5.77025e-05
44 *837:D *106:26 0.000256998
45 *837:D *106:50 0.000417857
46 *31:20 *106:26 0.0011666
47 *31:20 *106:50 0.00060832
48 *75:25 *106:26 0.00130709
*RES
1 *744:X *106:26 38.355 
2 *106:26 *106:50 25.7287 
3 *106:50 *747:B 37.905 
4 *106:50 *746:A 4.74 
5 *106:26 *751:A2 11.035 
*END

*D_NET *107 0.0045346
*CONN
*I *746:B I *D sky130_fd_sc_hd__nor2_1
*I *745:Y O *D sky130_fd_sc_hd__nor2_1
*CAP
1 *746:B 0.000749213
2 *745:Y 0.000749213
3 *746:B *694:D 0
4 *746:B *710:A1 0.000414056
5 *746:B *734:B 0.000119873
6 *746:B *856:A 1.05984e-05
7 *746:B *143:34 0.000369326
8 *705:A2 *746:B 0.000116853
9 *710:A2 *746:B 1.93834e-05
10 *712:A *746:B 0
11 *720:A *746:B 0.000928468
12 *735:B *746:B 0.000121034
13 *746:A *746:B 8.52883e-05
14 *747:B *746:B 3.02702e-05
15 *822:D *746:B 2.86975e-05
16 *31:20 *746:B 0.000157932
17 *106:50 *746:B 0.000634396
*RES
1 *745:Y *746:B 29.325 
*END

*D_NET *108 0.00540522
*CONN
*I *749:C I *D sky130_fd_sc_hd__and3_1
*I *748:X O *D sky130_fd_sc_hd__and3_1
*CAP
1 *749:C 0.000551161
2 *748:X 0.000551161
3 *749:C *700:A 0.00154738
4 *749:C *748:A 0.000385429
5 *749:C *748:B 0.00195945
6 *749:C *748:C 0
7 *749:C *749:A 8.53113e-06
8 *749:C *753:A 0.000119438
9 *749:C *767:A 0
10 *749:C *767:C 0.000232904
11 *749:C *799:A 1.43622e-05
12 *749:C *161:46 1.83194e-05
13 *825:RESET_B *749:C 1.70906e-05
*RES
1 *748:X *749:C 30.36 
*END

*D_NET *109 0.00685776
*CONN
*I *763:B I *D sky130_fd_sc_hd__nand2_1
*I *750:A I *D sky130_fd_sc_hd__buf_2
*I *749:X O *D sky130_fd_sc_hd__and3_1
*CAP
1 *763:B 0
2 *750:A 0.000580433
3 *749:X 0.00058795
4 *109:14 0.00116838
5 *750:A *733:B 7.12201e-05
6 *750:A *756:A_N 0.000221848
7 *750:A *768:C 0.000777196
8 *750:A *820:CLK 4.66108e-05
9 *750:A *110:43 1.85015e-05
10 *750:A *110:58 0.00031666
11 *750:A *119:10 0.000442457
12 *750:A *139:76 2.09991e-05
13 *750:A *156:18 1.12082e-05
14 *750:A *163:24 7.1443e-05
15 *750:A *166:63 4.77757e-05
16 *109:14 *733:B 1.16578e-05
17 *109:14 *748:B 0.000574798
18 *109:14 *846:A 0.0001947
19 *109:14 *116:20 0.000153591
20 *109:14 *130:107 3.83194e-05
21 *109:14 *133:30 3.05646e-05
22 *109:14 *135:14 0.00022786
23 *109:14 *161:46 0.000310169
24 *109:14 *162:12 0.000271666
25 *725:C1 *750:A 0.000384394
26 *825:RESET_B *109:14 0.00026901
27 *99:14 *109:14 8.34281e-06
*RES
1 *749:X *109:14 20.525 
2 *109:14 *750:A 22.475 
3 *109:14 *763:B 1.6 
*END

*D_NET *110 0.0305122
*CONN
*I *761:A2 I *D sky130_fd_sc_hd__a21boi_1
*I *771:A2_N I *D sky130_fd_sc_hd__o2bb2a_1
*I *760:A3 I *D sky130_fd_sc_hd__a31o_1
*I *768:D I *D sky130_fd_sc_hd__and4_1
*I *772:A2 I *D sky130_fd_sc_hd__a21oi_1
*I *767:D I *D sky130_fd_sc_hd__and4_1
*I *752:A_N I *D sky130_fd_sc_hd__and2b_1
*I *755:B I *D sky130_fd_sc_hd__nand2_1
*I *754:B I *D sky130_fd_sc_hd__nor2_1
*I *762:A2 I *D sky130_fd_sc_hd__a21oi_1
*I *750:X O *D sky130_fd_sc_hd__buf_2
*CAP
1 *761:A2 0.000332177
2 *771:A2_N 0.000194944
3 *760:A3 0.00093283
4 *768:D 3.24949e-05
5 *772:A2 0.000791432
6 *767:D 0
7 *752:A_N 0.000984454
8 *755:B 0.000242702
9 *754:B 2.47702e-05
10 *762:A2 0.000553997
11 *750:X 0
12 *110:143 0.0012721
13 *110:130 0.000444311
14 *110:126 0.00137482
15 *110:98 0.00200364
16 *110:60 0.00135248
17 *110:58 0.00204922
18 *110:43 0.00105759
19 *110:16 0.00133199
20 *110:4 0.001232
21 *752:A_N *696:C 0.000661153
22 *752:A_N *752:B 2.10152e-05
23 *752:A_N *851:A 4.82863e-05
24 *752:A_N *148:10 0
25 *752:A_N *170:16 0.000409101
26 *754:B *830:CLK 3.12916e-05
27 *754:B *168:60 1.26044e-05
28 *754:B *168:82 2.30141e-05
29 *755:B *696:C 2.02052e-05
30 *755:B *114:26 1.99662e-05
31 *760:A3 *694:D 1.83114e-05
32 *760:A3 *724:A 0.000211277
33 *760:A3 *737:A 3.18705e-05
34 *760:A3 *747:A 7.11785e-06
35 *760:A3 *758:B 0.000104851
36 *760:A3 *114:26 1.59317e-05
37 *760:A3 *142:75 0.00133113
38 *761:A2 *761:B1_N 0.000305031
39 *761:A2 *810:A 8.26741e-05
40 *761:A2 *146:53 4.83522e-05
41 *762:A2 *762:B1 3.66615e-05
42 *762:A2 *770:A 4.41506e-05
43 *762:A2 *770:B 0.000453912
44 *762:A2 *132:81 1.74901e-05
45 *768:D *768:A 4.11685e-05
46 *771:A2_N *768:C 8.58107e-05
47 *772:A2 *700:A 0
48 *772:A2 *772:A1 9.50342e-06
49 *772:A2 *799:A 0.000190896
50 *772:A2 *852:A 0.000157171
51 *772:A2 *121:12 0.000137329
52 *110:16 *689:A 0.000304722
53 *110:16 *820:CLK 0.000304726
54 *110:16 *132:56 2.98613e-05
55 *110:16 *139:12 6.32305e-06
56 *110:16 *139:14 0.000315598
57 *110:16 *157:14 0.000111966
58 *110:43 *756:A_N 0.00025755
59 *110:43 *772:A1 1.35153e-05
60 *110:43 *132:81 4.87849e-05
61 *110:43 *156:18 1.02564e-05
62 *110:43 *163:24 0.000223518
63 *110:58 *692:C 2.59981e-05
64 *110:58 *755:A 0.000124724
65 *110:58 *846:A 6.95753e-05
66 *110:58 *116:20 6.42913e-05
67 *110:58 *148:10 1.05827e-05
68 *110:58 *148:16 0.000307209
69 *110:58 *148:22 0
70 *110:58 *153:33 8.9731e-05
71 *110:58 *163:24 0.000357567
72 *110:98 *748:C 7.96104e-06
73 *110:98 *753:A 0
74 *110:126 *734:B 0.000178519
75 *110:126 *756:A_N 0.000129951
76 *110:126 *761:B1_N 0.000262805
77 *110:126 *768:C 0.000575375
78 *110:126 *145:18 0.000424739
79 *110:126 *166:63 2.01504e-05
80 *110:130 *768:A 0.000808057
81 *110:143 *747:A 4.04006e-05
82 *110:143 *758:B 8.07986e-05
83 *705:B1 *762:A2 5.8023e-05
84 *709:A1 *762:A2 4.41506e-05
85 *709:A1 *110:16 0.000302067
86 *721:B *755:B 7.77522e-05
87 *724:B *768:D 2.01841e-05
88 *724:B *110:130 8.67577e-05
89 *725:B1 *762:A2 6.05084e-05
90 *730:A *110:16 4.77757e-05
91 *730:A *110:126 0.000120407
92 *736:A *110:16 4.17378e-05
93 *739:A_N *771:A2_N 8.40269e-05
94 *747:B *760:A3 0
95 *750:A *110:43 1.85015e-05
96 *750:A *110:58 0.00031666
97 *817:RESET_B *760:A3 1.81181e-05
98 *819:RESET_B *755:B 0
99 *827:D *761:A2 8.35106e-05
100 *829:D *752:A_N 0
101 *829:D *755:B 1.92979e-05
102 *831:D *110:126 0.000276003
103 *841:D *772:A2 0.000607633
104 *29:18 *754:B 4.66108e-05
105 *55:22 *110:16 1.88602e-05
106 *55:22 *110:58 0
107 *78:8 *752:A_N 5.78686e-05
108 *81:51 *772:A2 0.00045755
109 *83:18 *762:A2 0.000306269
110 *83:18 *110:43 5.60252e-05
111 *89:26 *110:130 0.000628727
112 *97:16 *771:A2_N 0.000264133
113 *97:16 *110:126 0.000402587
*RES
1 *750:X *110:4 1.6 
2 *110:4 *110:16 14.1925 
3 *110:16 *762:A2 6.9143 
4 *110:16 *110:43 4.17837 
5 *110:43 *754:B 4.41 
6 *110:43 *110:58 16.7975 
7 *110:58 *110:60 0.271067 
8 *110:60 *755:B 4.77837 
9 *110:60 *752:A_N 22.4375 
10 *110:58 *110:98 4.3437 
11 *110:98 *767:D 1.6 
12 *110:98 *772:A2 22.91 
13 *110:4 *110:126 24.175 
14 *110:126 *110:130 11.6675 
15 *110:130 *768:D 4.0875 
16 *110:130 *110:143 0.8876 
17 *110:143 *760:A3 7.01443 
18 *110:143 *771:A2_N 8.1875 
19 *110:126 *761:A2 10.91 
*END

*D_NET *111 0.00770068
*CONN
*I *752:B I *D sky130_fd_sc_hd__and2b_1
*I *751:X O *D sky130_fd_sc_hd__a21o_1
*CAP
1 *752:B 0.00151038
2 *751:X 0.00151038
3 *752:B *696:A 0
4 *752:B *699:C_N 0.000191226
5 *752:B *770:B 0.000122074
6 *752:B *123:16 3.69766e-05
7 *752:B *135:30 3.68942e-05
8 *752:B *165:48 3.56097e-05
9 *752:B *165:77 0.00015896
10 *752:B *167:16 0.000893036
11 *752:B *170:16 0.00042393
12 *696:D *752:B 0.000186428
13 *700:B *752:B 0.000146855
14 *704:A3 *752:B 0.000435732
15 *725:B1 *752:B 0.000274608
16 *735:B *752:B 0.000472403
17 *737:B *752:B 0.00032742
18 *752:A_N *752:B 2.10152e-05
19 *77:22 *752:B 0.000307633
20 *77:86 *752:B 0.000335572
21 *78:8 *752:B 0.000273544
*RES
1 *751:X *752:B 47.595 
*END

*D_NET *112 0.0196386
*CONN
*I *753:A I *D sky130_fd_sc_hd__buf_1
*I *752:X O *D sky130_fd_sc_hd__and2b_1
*CAP
1 *753:A 0.00676638
2 *752:X 0.00676638
3 *753:A *696:B 0.000387134
4 *753:A *748:B 0.000171978
5 *753:A *794:A 5.99176e-05
6 *753:A *851:A 0.000251928
7 *753:A *140:10 0.000175493
8 *753:A *165:77 0.000219059
9 *716:A1_N *753:A 0
10 *718:A1 *753:A 0
11 *719:B *753:A 0.00378953
12 *726:B *753:A 0.000134502
13 *740:A *753:A 0
14 *749:C *753:A 0.000119438
15 *824:D *753:A 3.46795e-05
16 *832:RESET_B *753:A 0.000253166
17 *61:24 *753:A 0.000362793
18 *68:20 *753:A 0.0001462
19 *110:98 *753:A 0
*RES
1 *752:X *753:A 46.7624 
*END

*D_NET *113 0.00976346
*CONN
*I *756:A_N I *D sky130_fd_sc_hd__and2b_1
*I *754:Y O *D sky130_fd_sc_hd__nor2_1
*CAP
1 *756:A_N 0.00209051
2 *754:Y 0.00209051
3 *756:A_N *711:A 0.000265979
4 *756:A_N *711:B 0.000486871
5 *756:A_N *771:A1_N 0.00233548
6 *756:A_N *772:A1 0.000122412
7 *756:A_N *114:26 0.00038053
8 *756:A_N *163:24 1.97442e-05
9 *736:A *756:A_N 0.000106321
10 *750:A *756:A_N 0.000221848
11 *843:A *756:A_N 0.00121916
12 *83:18 *756:A_N 3.65956e-05
13 *95:37 *756:A_N 0
14 *110:43 *756:A_N 0.00025755
15 *110:126 *756:A_N 0.000129951
*RES
1 *754:Y *756:A_N 23.259 
*END

*D_NET *114 0.0145783
*CONN
*I *758:B I *D sky130_fd_sc_hd__xnor2_1
*I *756:B I *D sky130_fd_sc_hd__and2b_1
*I *755:Y O *D sky130_fd_sc_hd__nand2_1
*CAP
1 *758:B 0.000410964
2 *756:B 7.12222e-06
3 *755:Y 0.00329342
4 *114:26 0.00371151
5 *756:B *687:C 1.92979e-05
6 *756:B *760:A1 8.7152e-06
7 *756:B *774:A 3.63701e-06
8 *758:B *747:A 0
9 *114:26 *737:A 0
10 *114:26 *755:A 4.61701e-06
11 *114:26 *764:A_N 0.000656678
12 *114:26 *772:A1 4.97373e-05
13 *114:26 *149:24 1.07362e-05
14 *721:B *114:26 0.00140938
15 *743:A *758:B 6.63219e-06
16 *755:B *114:26 1.99662e-05
17 *756:A_N *114:26 0.00038053
18 *760:A3 *758:B 0.000104851
19 *760:A3 *114:26 1.59317e-05
20 *817:RESET_B *758:B 0.00069579
21 *817:RESET_B *114:26 0.00169736
22 *843:A *114:26 0.00183146
23 *81:51 *114:26 0.000159173
24 *110:143 *758:B 8.07986e-05
*RES
1 *755:Y *114:26 16.054 
2 *114:26 *756:B 4.3325 
3 *114:26 *758:B 5.47757 
*END

*D_NET *115 0.0032348
*CONN
*I *757:A I *D sky130_fd_sc_hd__buf_1
*I *756:X O *D sky130_fd_sc_hd__and2b_1
*CAP
1 *757:A 0.00091015
2 *756:X 0.00091015
3 *757:A *722:B 0.00080488
4 *757:A *760:A1 0.000301499
5 *757:A *768:B 0.000132941
6 *724:B *757:A 2.14995e-05
7 *97:16 *757:A 0.00015368
*RES
1 *756:X *757:A 23.685 
*END

*D_NET *116 0.0140569
*CONN
*I *767:C I *D sky130_fd_sc_hd__and4_1
*I *761:A1 I *D sky130_fd_sc_hd__a21boi_1
*I *762:A1 I *D sky130_fd_sc_hd__a21oi_1
*I *759:X O *D sky130_fd_sc_hd__and3_1
*CAP
1 *767:C 0.000379225
2 *761:A1 0.00158665
3 *762:A1 0.000903399
4 *759:X 0
5 *116:20 0.00336264
6 *116:4 0.00125182
7 *761:A1 *778:B 0.000279826
8 *761:A1 *813:CLK 0.000122659
9 *761:A1 *126:32 0.000131168
10 *761:A1 *129:102 0.000178036
11 *761:A1 *142:130 9.08126e-05
12 *761:A1 *156:56 6.3124e-06
13 *761:A1 *166:63 4.38293e-05
14 *762:A1 *818:CLK 2.95168e-05
15 *767:C *748:B 0
16 *767:C *749:A 4.04619e-05
17 *767:C *759:C 5.54534e-05
18 *767:C *767:B 0.000382473
19 *116:20 *733:B 0.000692047
20 *116:20 *812:A 0.00022786
21 *116:20 *133:30 0.000486048
22 *116:20 *135:14 1.1561e-05
23 *116:20 *148:16 4.43871e-06
24 *116:20 *153:33 1.74629e-05
25 *116:20 *163:24 0.000348124
26 *709:A1 *762:A1 7.30525e-05
27 *709:B1 *116:20 0.00015639
28 *714:A2 *761:A1 0.000127185
29 *721:B *761:A1 0
30 *749:C *767:C 0.000232904
31 *813:D *762:A1 5.83121e-06
32 *818:RESET_B *761:A1 0.000181579
33 *818:RESET_B *762:A1 7.71167e-05
34 *818:RESET_B *116:20 9.17189e-05
35 *824:RESET_B *761:A1 0.000176771
36 *824:RESET_B *116:20 0.000160001
37 *825:RESET_B *116:20 0.000580786
38 *826:D *761:A1 0.000412159
39 *834:D *761:A1 0.000111199
40 *839:RESET_B *761:A1 0.000156142
41 *841:D *767:C 0.000419378
42 *841:RESET_B *767:C 2.3184e-05
43 *841:RESET_B *116:20 4.4587e-05
44 *43:38 *761:A1 0
45 *61:24 *761:A1 0
46 *77:30 *116:20 0.000158066
47 *81:51 *767:C 1.91597e-05
48 *109:14 *116:20 0.000153591
49 *110:58 *116:20 6.42913e-05
*RES
1 *759:X *116:4 1.6 
2 *116:4 *116:20 30.5 
3 *116:20 *762:A1 12.1 
4 *116:20 *761:A1 34.79 
5 *116:4 *767:C 14.57 
*END

*D_NET *117 0.0057861
*CONN
*I *761:B1_N I *D sky130_fd_sc_hd__a21boi_1
*I *760:X O *D sky130_fd_sc_hd__a31o_1
*CAP
1 *761:B1_N 0.00165083
2 *760:X 0.00165083
3 *761:B1_N *737:A 2.23342e-05
4 *761:B1_N *760:A1 0.000129707
5 *761:B1_N *760:B1 0.000420016
6 *761:B1_N *810:A 0.000123955
7 *761:B1_N *143:26 0.000302831
8 *761:B1_N *143:90 0.000157551
9 *761:B1_N *166:22 0.000367408
10 *701:A *761:B1_N 0.000100879
11 *730:A *761:B1_N 6.59161e-05
12 *731:A2 *761:B1_N 5.8678e-05
13 *731:B1_N *761:B1_N 0.000167329
14 *761:A2 *761:B1_N 0.000305031
15 *110:126 *761:B1_N 0.000262805
*RES
1 *760:X *761:B1_N 35.445 
*END

*D_NET *118 0.0137556
*CONN
*I *764:A_N I *D sky130_fd_sc_hd__and2b_1
*I *762:Y O *D sky130_fd_sc_hd__a21oi_1
*CAP
1 *764:A_N 0.0036593
2 *762:Y 0.0036593
3 *764:A_N *738:A1 0
4 *764:A_N *738:A3 0.000405797
5 *764:A_N *764:B 0.00194999
6 *764:A_N *765:A 0.000341374
7 *764:A_N *797:A 8.65961e-05
8 *764:A_N *807:A 0.000381088
9 *764:A_N *121:12 0.000532723
10 *764:A_N *123:16 0.000405522
11 *764:A_N *128:54 5.12017e-06
12 *764:A_N *128:56 1.0183e-05
13 *764:A_N *130:18 0
14 *704:B1 *764:A_N 1.88656e-05
15 *721:B *764:A_N 0.000660067
16 *727:B1 *764:A_N 0
17 *739:B *764:A_N 0.000512328
18 *740:A *764:A_N 0.000306421
19 *813:RESET_B *764:A_N 0
20 *822:RESET_B *764:A_N 2.69863e-05
21 *836:D *764:A_N 2.05641e-05
22 *838:RESET_B *764:A_N 0
23 *843:A *764:A_N 7.18557e-05
24 *18:20 *764:A_N 0
25 *64:16 *764:A_N 4.48202e-05
26 *114:26 *764:A_N 0.000656678
*RES
1 *762:Y *764:A_N 44.6153 
*END

*D_NET *119 0.0133529
*CONN
*I *764:B I *D sky130_fd_sc_hd__and2b_1
*I *766:B I *D sky130_fd_sc_hd__xnor2_1
*I *763:Y O *D sky130_fd_sc_hd__nand2_1
*CAP
1 *764:B 0.00122551
2 *766:B 9.61503e-05
3 *763:Y 0.00021104
4 *119:21 0.00240578
5 *119:10 0.00148747
6 *764:B *797:A 3.00381e-05
7 *764:B *807:A 0.000216801
8 *764:B *121:12 4.3315e-05
9 *764:B *128:12 0.000332916
10 *764:B *128:54 2.34345e-05
11 *764:B *128:105 0.00020302
12 *764:B *141:79 0
13 *766:B *766:A 4.77769e-05
14 *766:B *768:B 0.00019072
15 *766:B *768:C 0.000301499
16 *766:B *148:24 0.000119873
17 *119:10 *768:C 2.85623e-05
18 *119:10 *139:10 9.63468e-05
19 *119:10 *139:12 8.70733e-05
20 *119:10 *139:76 3.86607e-05
21 *119:21 *768:B 0.000215032
22 *716:A1_N *764:B 0.000139035
23 *740:A *764:B 0.000311314
24 *750:A *119:10 0.000442457
25 *764:A_N *764:B 0.00194999
26 *793:A *764:B 0.000905274
27 *821:RESET_B *764:B 0
28 *826:RESET_B *764:B 0.00100761
29 *837:RESET_B *764:B 0.000245206
30 *5:13 *764:B 0.000173065
31 *55:22 *119:21 0.000529665
32 *64:16 *764:B 0.000122699
33 *68:20 *119:21 0.000125603
*RES
1 *763:Y *119:10 11.06 
2 *119:10 *766:B 4.81 
3 *119:10 *119:21 20.735 
4 *119:21 *764:B 41.64 
*END

*D_NET *120 0.0078727
*CONN
*I *765:A I *D sky130_fd_sc_hd__buf_1
*I *764:X O *D sky130_fd_sc_hd__and2b_1
*CAP
1 *765:A 0.00224483
2 *764:X 0.00224483
3 *765:A *794:A 0.000835669
4 *765:A *809:A 0.000417953
5 *765:A *823:CLK 5.13924e-05
6 *765:A *128:56 6.28843e-05
7 *764:A_N *765:A 0.000341374
8 *821:RESET_B *765:A 0.00032964
9 *823:D *765:A 8.12896e-06
10 *823:RESET_B *765:A 0.0013092
11 *18:20 *765:A 2.68037e-05
*RES
1 *764:X *765:A 45.265 
*END

*D_NET *121 0.00914674
*CONN
*I *769:A2 I *D sky130_fd_sc_hd__o21ba_1
*I *767:X O *D sky130_fd_sc_hd__and4_1
*CAP
1 *769:A2 0.000171898
2 *767:X 0.00150798
3 *121:12 0.00167988
4 *769:A2 *738:A2 0.000521259
5 *769:A2 *769:A1 4.97166e-05
6 *769:A2 *769:B1_N 0.000485526
7 *121:12 *700:A 0
8 *121:12 *702:C 0.000211578
9 *121:12 *852:A 0.000303911
10 *121:12 *128:12 0.000334266
11 *121:12 *128:105 0.00116608
12 *121:12 *130:141 0
13 *121:12 *134:25 0.000461067
14 *121:12 *161:21 0
15 *121:12 *161:46 0
16 *121:12 *168:52 4.84472e-05
17 *739:B *121:12 5.79947e-05
18 *764:A_N *121:12 0.000532723
19 *764:B *121:12 4.3315e-05
20 *772:A2 *121:12 0.000137329
21 *828:D *121:12 9.39714e-05
22 *837:RESET_B *121:12 0.000245206
23 *18:20 *121:12 0.00010355
24 *22:14 *121:12 0.000746188
25 *81:51 *121:12 0.000244842
*RES
1 *767:X *121:12 47.225 
2 *121:12 *769:A2 7.585 
*END

*D_NET *122 0.00792304
*CONN
*I *769:B1_N I *D sky130_fd_sc_hd__o21ba_1
*I *771:B1 I *D sky130_fd_sc_hd__o2bb2a_1
*I *768:X O *D sky130_fd_sc_hd__and4_1
*CAP
1 *769:B1_N 0.00115684
2 *771:B1 3.07736e-05
3 *768:X 9.98662e-05
4 *122:10 0.00128748
5 *769:B1_N *738:A2 0.000489642
6 *769:B1_N *769:A1 0.000761025
7 *769:B1_N *778:A 5.05716e-06
8 *769:B1_N *778:B 8.75156e-06
9 *769:B1_N *151:14 0.00156299
10 *122:10 *768:A 0.000304613
11 *122:10 *787:A 0.000158611
12 *739:A_N *769:B1_N 0.000223562
13 *739:A_N *771:B1 1.56428e-05
14 *769:A2 *769:B1_N 0.000485526
15 *817:RESET_B *122:10 0.000123946
16 *822:RESET_B *769:B1_N 0.00115095
17 *832:RESET_B *769:B1_N 5.77615e-05
*RES
1 *768:X *122:10 9.275 
2 *122:10 *771:B1 2.05 
3 *122:10 *769:B1_N 41.51 
*END

*D_NET *123 0.0197997
*CONN
*I *772:A1 I *D sky130_fd_sc_hd__a21oi_1
*I *771:A1_N I *D sky130_fd_sc_hd__o2bb2a_1
*I *770:X O *D sky130_fd_sc_hd__and4_1
*CAP
1 *772:A1 0.00253487
2 *771:A1_N 0.00158902
3 *770:X 0.000608487
4 *123:16 0.00473238
5 *771:A1_N *734:A 0.000352882
6 *771:A1_N *768:B 0.000112534
7 *771:A1_N *768:C 9.29751e-06
8 *771:A1_N *771:B2 3.19139e-05
9 *771:A1_N *154:48 0.000119309
10 *771:A1_N *156:18 0.00104282
11 *772:A1 *690:A 0
12 *772:A1 *700:A 0
13 *772:A1 *738:A3 0
14 *772:A1 *759:A 0
15 *772:A1 *773:B 5.78448e-05
16 *772:A1 *132:81 0.000146477
17 *772:A1 *133:10 3.69766e-05
18 *772:A1 *133:30 6.52411e-05
19 *772:A1 *156:18 0.000105958
20 *772:A1 *168:60 0.000286629
21 *123:16 *738:A3 0.000209419
22 *123:16 *770:C 3.80092e-05
23 *123:16 *167:16 3.72952e-05
24 *701:A *123:16 4.03791e-05
25 *714:A2 *772:A1 0.000196045
26 *714:B1_N *772:A1 3.83194e-05
27 *716:A1_N *772:A1 0.000325005
28 *718:A1 *772:A1 0.000669779
29 *720:A *771:A1_N 0.000112123
30 *726:B *772:A1 1.87841e-05
31 *739:A_N *771:A1_N 6.11378e-05
32 *752:B *123:16 3.69766e-05
33 *756:A_N *771:A1_N 0.00233548
34 *756:A_N *772:A1 0.000122412
35 *764:A_N *123:16 0.000405522
36 *772:A2 *772:A1 9.50342e-06
37 *813:D *123:16 0.000155491
38 *817:RESET_B *771:A1_N 0
39 *828:RESET_B *772:A1 0.000106344
40 *830:D *772:A1 0.00128368
41 *831:D *771:A1_N 8.3512e-05
42 *843:A *771:A1_N 1.79329e-05
43 *82:141 *772:A1 8.41703e-06
44 *83:18 *772:A1 0
45 *83:18 *123:16 0.000993202
46 *90:12 *772:A1 0.000138938
47 *91:40 *772:A1 0
48 *97:16 *771:A1_N 0.000421889
49 *99:14 *772:A1 3.82072e-05
50 *110:43 *772:A1 1.35153e-05
51 *114:26 *772:A1 4.97373e-05
*RES
1 *770:X *123:16 8.15457 
2 *123:16 *771:A1_N 13.3914 
3 *123:16 *772:A1 30.8685 
*END

*D_NET *124 0.00202455
*CONN
*I *773:B I *D sky130_fd_sc_hd__nor2_1
*I *772:Y O *D sky130_fd_sc_hd__a21oi_1
*CAP
1 *773:B 0.000355374
2 *772:Y 0.000355374
3 *773:B *690:B 0.000210757
4 *773:B *700:A 0
5 *773:B *706:A 4.66108e-05
6 *773:B *144:16 0.000305694
7 *707:B *773:B 0.000113797
8 *717:B *773:B 4.82919e-05
9 *772:A1 *773:B 5.78448e-05
10 *816:D *773:B 2.68966e-05
11 *828:RESET_B *773:B 9.99475e-05
12 *77:58 *773:B 0.00040396
*RES
1 *772:Y *773:B 17.16 
*END

*D_NET *125 0.00239126
*CONN
*I *777:A I *D sky130_fd_sc_hd__nor2_1
*I *775:Y O *D sky130_fd_sc_hd__a21oi_1
*CAP
1 *777:A 0.000906106
2 *775:Y 0.000906106
3 *777:A *738:B1 0.000114684
4 *777:A *778:B 9.03508e-06
5 *777:A *813:CLK 1.77665e-05
6 *777:A *126:32 1.17383e-05
7 *777:A *141:14 4.77757e-05
8 *777:A *152:67 4.36954e-05
9 *777:A *159:23 0.000245893
10 *775:A2 *777:A 2.96334e-05
11 *813:D *777:A 5.88279e-05
*RES
1 *775:Y *777:A 19.77 
*END

*D_NET *126 0.010691
*CONN
*I *778:B I *D sky130_fd_sc_hd__xor2_1
*I *777:B I *D sky130_fd_sc_hd__nor2_1
*I *776:X O *D sky130_fd_sc_hd__and3_1
*CAP
1 *778:B 0.00142917
2 *777:B 0
3 *776:X 0.00158648
4 *126:32 0.00301564
5 *778:B *813:CLK 0.000503413
6 *778:B *856:A 9.52499e-05
7 *778:B *136:14 0
8 *778:B *146:53 0
9 *778:B *151:14 0.000125887
10 *778:B *169:16 0.000236538
11 *126:32 *693:A 0
12 *126:32 *714:A1 4.9367e-05
13 *126:32 *814:CLK 8.23457e-05
14 *126:32 *136:14 0
15 *126:32 *136:32 0
16 *126:32 *144:66 0.000156765
17 *126:32 *156:56 0
18 *709:B1 *126:32 0.000251524
19 *714:A2 *126:32 9.86815e-06
20 *721:B *778:B 8.35068e-05
21 *743:B *778:B 0
22 *761:A1 *778:B 0.000279826
23 *761:A1 *126:32 0.000131168
24 *769:B1_N *778:B 8.75156e-06
25 *777:A *778:B 9.03508e-06
26 *777:A *126:32 1.17383e-05
27 *813:D *778:B 1.56428e-05
28 *813:D *126:32 7.55822e-06
29 *814:D *126:32 8.35068e-05
30 *818:RESET_B *126:32 0
31 *824:RESET_B *126:32 0
32 *826:D *778:B 0.000154169
33 *827:D *778:B 3.62086e-05
34 *827:RESET_B *778:B 0.000513926
35 *832:RESET_B *778:B 3.23386e-05
36 *834:D *126:32 0.00172741
37 *43:38 *126:32 5.4003e-05
*RES
1 *776:X *126:32 43.6 
2 *126:32 *777:B 1.6 
3 *126:32 *778:B 36.825 
*END

*D_NET *127 0.00899589
*CONN
*I *780:B1 I *D sky130_fd_sc_hd__o2bb2a_1
*I *779:X O *D sky130_fd_sc_hd__and4_1
*CAP
1 *780:B1 0.00120203
2 *779:X 0.00120203
3 *780:B1 *692:D 0.00123211
4 *780:B1 *704:A1 6.79583e-05
5 *780:B1 *704:A2 0.000506793
6 *780:B1 *779:A 0.000328968
7 *780:B1 *779:C 3.04704e-05
8 *780:B1 *780:A1_N 8.23457e-05
9 *780:B1 *818:CLK 4.47073e-05
10 *780:B1 *829:CLK 2.10693e-05
11 *780:B1 *129:68 0.000397048
12 *780:B1 *139:98 0.000789554
13 *780:B1 *142:10 0.000258382
14 *780:B1 *144:87 3.83194e-05
15 *780:B1 *149:24 0.000104583
16 *780:B1 *155:14 0.000299169
17 *780:B1 *161:67 4.10469e-05
18 *779:D *780:B1 0.000381643
19 *780:A2_N *780:B1 0.000165025
20 *814:RESET_B *780:B1 9.34773e-06
21 *818:D *780:B1 0.000208903
22 *819:D *780:B1 0.00101079
23 *18:20 *780:B1 0.000573597
*RES
1 *779:X *780:B1 48.54 
*END

*D_NET *128 0.0245858
*CONN
*I *804:A I *D sky130_fd_sc_hd__inv_2
*I *805:A I *D sky130_fd_sc_hd__inv_2
*I *812:A I *D sky130_fd_sc_hd__inv_2
*I *808:A I *D sky130_fd_sc_hd__inv_2
*I *782:A I *D sky130_fd_sc_hd__buf_4
*I *807:A I *D sky130_fd_sc_hd__inv_2
*I *806:A I *D sky130_fd_sc_hd__inv_2
*I *809:A I *D sky130_fd_sc_hd__inv_2
*I *811:A I *D sky130_fd_sc_hd__inv_2
*I *810:A I *D sky130_fd_sc_hd__inv_2
*I *781:X O *D sky130_fd_sc_hd__buf_4
*CAP
1 *804:A 2.21004e-05
2 *805:A 0
3 *812:A 0.000893165
4 *808:A 1.56078e-05
5 *782:A 0
6 *807:A 9.39119e-05
7 *806:A 0.000265524
8 *809:A 0.000366985
9 *811:A 0
10 *810:A 0.000550287
11 *781:X 0.000270021
12 *128:115 0.00142054
13 *128:105 0.00109403
14 *128:56 0.000727227
15 *128:54 0.000438028
16 *128:43 0.000315606
17 *128:22 0.00067822
18 *128:18 0.000510217
19 *128:12 0.000557596
20 *128:8 0.000908071
21 *806:A *856:A 0.000344632
22 *806:A *169:16 8.54281e-05
23 *810:A *716:B2 9.70505e-05
24 *810:A *138:8 0.000104306
25 *810:A *138:10 7.70828e-05
26 *810:A *152:35 0.000138965
27 *810:A *152:50 4.88568e-05
28 *810:A *159:10 0.000234764
29 *812:A *692:C 0.000228848
30 *812:A *692:D 0.000267335
31 *812:A *693:A 0.000172848
32 *812:A *748:B 0.000168403
33 *812:A *749:A 0
34 *812:A *133:30 4.88555e-05
35 *812:A *148:16 0.000307143
36 *128:43 *716:B2 1.19928e-05
37 *128:54 *716:B2 1.56428e-05
38 *128:105 *816:CLK 6.71882e-05
39 *128:105 *168:26 2.35435e-05
40 *128:105 *168:52 0.000653364
41 *128:105 *168:60 0.000134037
42 *128:115 *767:A 0
43 *128:115 *816:CLK 9.96764e-05
44 *128:115 *834:CLK 0.000397595
45 *128:115 *840:CLK 3.59531e-06
46 *128:115 *153:33 0.000559713
47 *128:115 *168:26 1.16854e-05
48 *716:A2_N *128:18 0.000805196
49 *716:A2_N *128:22 0.000201407
50 *716:B1 *810:A 0.000524129
51 *716:B1 *128:43 0.000255392
52 *716:B1 *128:54 3.57349e-05
53 *740:A *128:18 0.000174282
54 *761:A2 *810:A 8.26741e-05
55 *761:B1_N *810:A 0.000123955
56 *764:A_N *807:A 0.000381088
57 *764:A_N *128:54 5.12017e-06
58 *764:A_N *128:56 1.0183e-05
59 *764:B *807:A 0.000216801
60 *764:B *128:12 0.000332916
61 *764:B *128:54 2.34345e-05
62 *764:B *128:105 0.00020302
63 *765:A *809:A 0.000417953
64 *765:A *128:56 6.28843e-05
65 *781:A *128:8 0.000301899
66 *816:D *128:105 2.49909e-05
67 *821:RESET_B *128:54 0.000205787
68 *821:RESET_B *128:56 1.52945e-05
69 *824:RESET_B *808:A 2.49909e-05
70 *824:RESET_B *128:18 0.000107324
71 *826:RESET_B *128:54 0.000638643
72 *827:D *810:A 2.01504e-05
73 *834:D *128:115 0.000136658
74 *839:D *128:54 0.000181369
75 *839:RESET_B *810:A 0.000331421
76 *840:D *812:A 0.000231791
77 *840:D *128:115 8.35068e-05
78 *841:RESET_B *812:A 0.000477422
79 *5:13 *128:105 0.000100522
80 *22:14 *128:18 0.00138169
81 *22:14 *128:22 0.000201407
82 *49:8 *808:A 2.05056e-05
83 *49:8 *128:18 0.000109856
84 *61:24 *128:115 8.23457e-05
85 *68:20 *810:A 8.40213e-05
86 *68:20 *128:43 0.00022964
87 *82:126 *128:18 0.000228932
88 *82:141 *128:18 0.0003516
89 *116:20 *812:A 0.00022786
90 *121:12 *128:12 0.000334266
91 *121:12 *128:105 0.00116608
*RES
1 *781:X *128:8 7.845 
2 *128:8 *128:12 5.93 
3 *128:12 *128:18 20.255 
4 *128:18 *128:22 4.4 
5 *128:22 *810:A 20.15 
6 *128:22 *128:43 2.52 
7 *128:43 *811:A 1.6 
8 *128:43 *128:54 10.715 
9 *128:54 *128:56 1.89 
10 *128:56 *809:A 11.685 
11 *128:56 *806:A 9.225 
12 *128:54 *807:A 7.155 
13 *128:18 *782:A 3.6 
14 *128:12 *808:A 2.05 
15 *128:8 *128:105 18.65 
16 *128:105 *128:115 15.85 
17 *128:115 *812:A 25.1 
18 *128:115 *805:A 1.6 
19 *128:105 *804:A 1.96 
*END

*D_NET *129 0.0255485
*CONN
*I *788:A I *D sky130_fd_sc_hd__inv_2
*I *786:A I *D sky130_fd_sc_hd__inv_2
*I *785:A I *D sky130_fd_sc_hd__inv_2
*I *792:A I *D sky130_fd_sc_hd__inv_2
*I *783:A I *D sky130_fd_sc_hd__inv_2
*I *791:A I *D sky130_fd_sc_hd__inv_2
*I *790:A I *D sky130_fd_sc_hd__inv_2
*I *784:A I *D sky130_fd_sc_hd__inv_2
*I *789:A I *D sky130_fd_sc_hd__inv_2
*I *787:A I *D sky130_fd_sc_hd__inv_2
*I *782:X O *D sky130_fd_sc_hd__buf_4
*CAP
1 *788:A 0
2 *786:A 1.20605e-05
3 *785:A 0.000432302
4 *792:A 0
5 *783:A 0
6 *791:A 0
7 *790:A 0.000139571
8 *784:A 0.000289732
9 *789:A 0.000619941
10 *787:A 0.000858908
11 *782:X 0.000784384
12 *129:129 0.00080457
13 *129:116 0.000455838
14 *129:109 0.000191471
15 *129:102 0.000461712
16 *129:70 0.000513355
17 *129:68 0.000983911
18 *129:49 0.00177331
19 *129:18 0.00159549
20 *129:14 0.00090158
21 *784:A *727:A2 4.40028e-05
22 *784:A *145:16 8.78284e-05
23 *785:A *691:D 8.40213e-05
24 *785:A *776:B 4.40073e-05
25 *785:A *840:CLK 0.000148485
26 *785:A *853:A 8.23457e-05
27 *785:A *133:30 5.1843e-05
28 *785:A *151:18 2.53191e-06
29 *785:A *166:63 0.000420184
30 *786:A *691:D 3.57349e-05
31 *786:A *853:A 4.66108e-05
32 *787:A *758:A 8.52883e-05
33 *787:A *760:A1 9.43764e-06
34 *787:A *768:A 0.000505894
35 *787:A *856:A 0.000302096
36 *787:A *169:16 0.000192489
37 *789:A *742:A 4.87405e-05
38 *790:A *854:A 4.66108e-05
39 *129:14 *697:A 0.000711256
40 *129:14 *844:A 0.000342551
41 *129:14 *136:14 0.00016031
42 *129:18 *768:A 3.69338e-05
43 *129:49 *132:6 0.000660672
44 *129:49 *132:12 8.23457e-05
45 *129:68 *711:A 0.000132872
46 *129:68 *132:12 9.12341e-05
47 *129:68 *132:31 0.000394354
48 *129:68 *132:56 6.38291e-05
49 *129:68 *155:14 0.000163549
50 *129:70 *145:16 7.34143e-05
51 *129:102 *714:A1 4.66108e-05
52 *129:102 *854:A 0.000119756
53 *129:102 *142:130 0.000325081
54 *129:102 *145:16 0.00015916
55 *129:102 *163:24 0.000265276
56 *129:109 *714:A1 0.000158543
57 *129:129 *152:67 0.000362191
58 *697:B *129:14 4.17947e-05
59 *697:B *129:18 3.09233e-05
60 *704:B1 *790:A 0.00032112
61 *727:B1 *784:A 0.00074256
62 *728:A *789:A 7.05553e-05
63 *728:A *129:49 2.32597e-05
64 *742:B *789:A 8.43317e-05
65 *743:A *787:A 0
66 *743:B *787:A 0.000222869
67 *743:B *789:A 8.91174e-06
68 *761:A1 *129:102 0.000178036
69 *780:B1 *129:68 0.000397048
70 *814:RESET_B *784:A 0.00107014
71 *814:RESET_B *129:70 0.000225285
72 *814:RESET_B *129:102 4.77757e-05
73 *818:RESET_B *129:102 0.000179324
74 *820:RESET_B *790:A 5.83121e-06
75 *823:D *787:A 9.4879e-05
76 *823:RESET_B *787:A 0.000160319
77 *824:RESET_B *129:109 0.000101493
78 *824:RESET_B *129:116 0.000195059
79 *824:RESET_B *129:129 8.49936e-05
80 *836:D *790:A 0.000323481
81 *840:D *785:A 9.18707e-05
82 *841:RESET_B *785:A 1.83756e-05
83 *18:20 *129:68 0.00088981
84 *47:12 *789:A 1.1392e-05
85 *49:8 *129:109 0.000171362
86 *49:8 *129:116 0.000188363
87 *49:8 *129:129 7.98464e-05
88 *57:12 *785:A 0.000517553
89 *57:12 *129:129 0.000827809
90 *61:24 *787:A 0.000399926
91 *89:26 *129:102 1.56428e-05
92 *89:26 *129:109 9.1682e-06
93 *90:12 *129:129 0.000152595
94 *122:10 *787:A 0.000158611
*RES
1 *782:X *129:14 16.425 
2 *129:14 *129:18 2.085 
3 *129:18 *787:A 28.06 
4 *129:18 *129:49 9.695 
5 *129:49 *789:A 8.785 
6 *129:49 *129:68 20.47 
7 *129:68 *129:70 2.175 
8 *129:70 *784:A 12.07 
9 *129:70 *790:A 9.98 
10 *129:68 *129:102 13.945 
11 *129:102 *791:A 1.6 
12 *129:102 *129:109 3.21 
13 *129:109 *783:A 1.6 
14 *129:109 *129:116 3.21 
15 *129:116 *792:A 1.6 
16 *129:116 *129:129 15.535 
17 *129:129 *785:A 17.225 
18 *129:129 *786:A 2.05 
19 *129:14 *788:A 3.6 
*END

*D_NET *130 0.0341913
*CONN
*I *795:A I *D sky130_fd_sc_hd__inv_2
*I *799:A I *D sky130_fd_sc_hd__inv_2
*I *803:A I *D sky130_fd_sc_hd__inv_2
*I *798:A I *D sky130_fd_sc_hd__inv_2
*I *796:A I *D sky130_fd_sc_hd__inv_2
*I *800:A I *D sky130_fd_sc_hd__inv_2
*I *801:A I *D sky130_fd_sc_hd__inv_2
*I *802:A I *D sky130_fd_sc_hd__inv_2
*I *797:A I *D sky130_fd_sc_hd__inv_2
*I *794:A I *D sky130_fd_sc_hd__inv_2
*I *793:X O *D sky130_fd_sc_hd__buf_4
*CAP
1 *795:A 0
2 *799:A 0.000472298
3 *803:A 0
4 *798:A 0.0001229
5 *796:A 0.000555078
6 *800:A 0.000145355
7 *801:A 0.00203453
8 *802:A 0
9 *797:A 0.000165003
10 *794:A 0.000431441
11 *793:X 0
12 *130:141 0.00102366
13 *130:107 0.00241456
14 *130:101 0.00295776
15 *130:91 0.000723517
16 *130:78 0.000461947
17 *130:18 0.00091075
18 *130:14 0.000481027
19 *130:12 0.00266382
20 *130:4 0.000725454
21 *794:A *747:A 0.000498025
22 *796:A *715:C 0.000305728
23 *796:A *167:16 0.000309729
24 *796:A *168:82 1.52352e-05
25 *798:A *704:A2 0.000232506
26 *799:A *700:A 0.000421821
27 *799:A *748:A 0.000160338
28 *799:A *748:C 0.000607645
29 *799:A *759:A 0.000159333
30 *799:A *772:B1 0
31 *800:A *854:A 0.000147494
32 *801:A *710:A1 0.000519861
33 *801:A *734:B 4.41506e-05
34 *801:A *142:45 0.00011274
35 *801:A *158:20 0.000770259
36 *130:12 *144:66 7.48028e-05
37 *130:78 *144:66 0.000139305
38 *130:78 *169:54 0.000388413
39 *130:91 *169:54 0.000196613
40 *130:101 *707:A 0.00107882
41 *130:101 *134:25 0.00018955
42 *130:107 *704:A2 7.06865e-05
43 *130:107 *846:A 0.000780695
44 *130:107 *135:14 3.09088e-05
45 *130:107 *135:22 1.47347e-05
46 *130:107 *136:32 1.91597e-05
47 *130:107 *139:76 0.000152047
48 *702:A_N *130:141 9.8837e-05
49 *716:A2_N *130:14 3.50033e-05
50 *718:A2 *130:141 0.000315411
51 *719:A *130:18 0
52 *725:B1 *796:A 0.000308055
53 *726:B *130:12 0.000675586
54 *726:B *130:14 0.000316818
55 *739:A_N *794:A 4.66826e-05
56 *739:A_N *797:A 2.30292e-05
57 *745:B *801:A 4.77807e-05
58 *749:C *799:A 1.43622e-05
59 *753:A *794:A 5.99176e-05
60 *764:A_N *797:A 8.65961e-05
61 *764:A_N *130:18 0
62 *764:B *797:A 3.00381e-05
63 *765:A *794:A 0.000835669
64 *772:A2 *799:A 0.000190896
65 *793:A *130:78 4.94457e-05
66 *793:A *130:101 0.000354901
67 *814:D *130:101 9.17504e-06
68 *814:D *130:107 9.60582e-07
69 *823:D *794:A 9.17251e-05
70 *824:RESET_B *130:101 8.63479e-05
71 *825:RESET_B *796:A 0.00014956
72 *826:D *801:A 0.000956819
73 *828:RESET_B *799:A 2.41838e-05
74 *829:D *798:A 0.000241037
75 *829:D *130:107 7.06865e-05
76 *832:D *794:A 4.41506e-05
77 *832:D *797:A 9.66106e-05
78 *832:RESET_B *130:141 0.000186077
79 *835:D *794:A 0
80 *838:RESET_B *794:A 0.000475286
81 *838:RESET_B *130:18 0.00025063
82 *840:D *798:A 0.000120655
83 *841:D *130:141 2.15826e-05
84 *5:13 *130:101 0.000731752
85 *22:14 *130:14 0
86 *22:14 *130:18 0
87 *49:8 *130:101 6.51658e-05
88 *55:22 *798:A 3.03684e-05
89 *68:20 *130:12 0.000684172
90 *68:20 *130:14 0.000286695
91 *73:12 *130:78 0.000386747
92 *73:12 *130:91 0.000204456
93 *77:30 *796:A 0.000523238
94 *82:113 *130:12 8.23457e-05
95 *82:141 *130:141 0.000111149
96 *82:154 *130:141 3.32198e-05
97 *83:18 *130:141 0.000578501
98 *91:40 *130:107 6.73575e-05
99 *95:25 *130:14 0.000138434
100 *95:25 *130:18 0.000170867
101 *106:50 *801:A 1.42511e-05
102 *109:14 *130:107 3.83194e-05
103 *121:12 *130:141 0
*RES
1 *793:X *130:4 1.6 
2 *130:4 *130:12 13.49 
3 *130:12 *130:14 5.46 
4 *130:14 *130:18 8.48 
5 *130:18 *794:A 20.165 
6 *130:18 *797:A 5.155 
7 *130:14 *802:A 3.6 
8 *130:12 *801:A 38.305 
9 *130:4 *130:78 9.305 
10 *130:78 *800:A 6.12 
11 *130:78 *130:91 4.4 
12 *130:91 *130:101 21.55 
13 *130:101 *130:107 22.64 
14 *130:107 *796:A 19.075 
15 *130:107 *798:A 7.65 
16 *130:101 *130:141 17.62 
17 *130:141 *803:A 1.6 
18 *130:141 *799:A 18.785 
19 *130:91 *795:A 1.6 
*END

*D_NET *131 0.0174092
*CONN
*I *705:A1 I *D sky130_fd_sc_hd__o31ai_1
*I *696:B I *D sky130_fd_sc_hd__and4_1
*I *687:X O *D sky130_fd_sc_hd__and3_1
*CAP
1 *705:A1 4.45599e-05
2 *696:B 0.000823487
3 *687:X 0.00160472
4 *131:26 0.00176733
5 *131:24 0.00102643
6 *131:20 0.00173187
7 *131:20 *687:C 4.89395e-05
8 *131:20 *711:A 4.77807e-05
9 *131:20 *760:A1 2.50267e-05
10 *131:20 *142:58 0.000600947
11 *131:20 *168:88 0
12 *705:A3 *705:A1 7.14699e-05
13 *705:A3 *131:24 0.000198939
14 *711:C *131:20 6.31545e-05
15 *712:B *131:20 0.000250565
16 *720:A *131:20 0.000103745
17 *739:A_N *131:20 0.000412565
18 *753:A *696:B 0.000387134
19 *819:RESET_B *131:26 0.000550224
20 *833:D *131:20 0.000339073
21 *838:D *131:20 0
22 *838:D *131:26 0.00270582
23 *18:20 *131:20 0.000340429
24 *33:16 *131:20 5.80453e-05
25 *33:18 *131:20 0
26 *33:18 *131:26 0.00389978
27 *47:12 *131:24 0
28 *78:12 *131:26 0.000307121
*RES
1 *687:X *131:20 35.82 
2 *131:20 *131:24 3.83 
3 *131:24 *131:26 50.34 
4 *131:26 *696:B 17.89 
5 *131:20 *705:A1 2.395 
*END

*D_NET *132 0.026016
*CONN
*I *711:B I *D sky130_fd_sc_hd__and3_1
*I *713:A I *D sky130_fd_sc_hd__and3_1
*I *690:C I *D sky130_fd_sc_hd__and4_2
*I *715:B I *D sky130_fd_sc_hd__and3_1
*I *780:A1_N I *D sky130_fd_sc_hd__o2bb2a_1
*I *710:A1 I *D sky130_fd_sc_hd__a21oi_1
*I *688:X O *D sky130_fd_sc_hd__and4_2
*CAP
1 *711:B 0.000547585
2 *713:A 0.000275322
3 *690:C 0.00100292
4 *715:B 0.0010018
5 *780:A1_N 3.59298e-05
6 *710:A1 0.00061851
7 *688:X 0.000410897
8 *132:81 0.0030409
9 *132:56 0.00339634
10 *132:31 0.000914412
11 *132:12 0.0010119
12 *132:6 0.00110527
13 *690:C *690:B 0.000138718
14 *690:C *690:D 5.29485e-05
15 *690:C *707:A 1.66856e-05
16 *690:C *134:6 4.31222e-06
17 *690:C *160:8 4.66108e-05
18 *690:C *161:8 0.000153816
19 *710:A1 *710:B1 1.77665e-05
20 *710:A1 *734:B 0.000149648
21 *710:A1 *142:45 1.58088e-05
22 *711:B *687:C 0.00075206
23 *711:B *688:D 6.76938e-05
24 *711:B *711:A 0.000137059
25 *711:B *760:A1 0.000125678
26 *713:A *713:B 9.14049e-05
27 *713:A *718:B1 0.000143796
28 *713:A *825:CLK 1.17114e-05
29 *713:A *152:67 1.05827e-05
30 *715:B *715:C 7.54776e-05
31 *715:B *762:B1 0.000345193
32 *715:B *770:B 0.000141477
33 *715:B *842:A 2.23107e-05
34 *780:A1_N *144:87 0.000119246
35 *132:6 *688:D 0.00012569
36 *132:6 *154:48 0.000634422
37 *132:12 *688:D 0.000320733
38 *132:12 *711:A 0.000153439
39 *132:31 *688:D 0.000654494
40 *132:56 *688:D 8.53113e-06
41 *132:56 *699:C_N 0.000119246
42 *132:56 *762:B1 4.69661e-05
43 *132:56 *770:B 3.69766e-05
44 *132:56 *148:22 3.05601e-05
45 *132:56 *155:14 0.000251566
46 *132:56 *158:20 0.000498678
47 *132:81 *690:B 5.13155e-05
48 *132:81 *715:C 0.000170947
49 *132:81 *718:B1 1.1561e-05
50 *132:81 *762:B1 1.76057e-05
51 *132:81 *146:53 0.000291504
52 *132:81 *152:67 0.000674712
53 *132:81 *153:50 0.000501544
54 *707:B *690:C 9.56774e-05
55 *709:A1 *132:56 0.000754369
56 *709:B1 *715:B 0
57 *710:A2 *710:A1 5.83121e-06
58 *728:A *132:6 3.83194e-05
59 *728:A *132:12 4.66742e-05
60 *728:A *132:56 8.53113e-06
61 *735:B *710:A1 6.04372e-05
62 *745:B *710:A1 4.77807e-05
63 *746:B *710:A1 0.000414056
64 *756:A_N *711:B 0.000486871
65 *762:A2 *132:81 1.74901e-05
66 *772:A1 *132:81 0.000146477
67 *780:A2_N *780:A1_N 2.0514e-05
68 *780:B1 *780:A1_N 8.23457e-05
69 *801:A *710:A1 0.000519861
70 *814:D *690:C 8.23457e-05
71 *815:RESET_B *711:B 0.000170888
72 *817:D *715:B 6.16226e-06
73 *824:D *132:81 0.000111995
74 *828:RESET_B *690:C 7.06865e-05
75 *829:D *132:56 5.66369e-05
76 *830:RESET_B *710:A1 6.37024e-06
77 *830:RESET_B *715:B 0.000231802
78 *836:RESET_B *132:81 0
79 *840:RESET_B *690:C 4.1057e-05
80 *841:D *690:C 2.75229e-05
81 *841:RESET_B *690:C 8.20078e-05
82 *57:12 *713:A 0
83 *68:20 *132:81 2.25079e-05
84 *82:20 *711:B 9.10613e-05
85 *83:18 *715:B 0
86 *83:18 *132:81 0
87 *90:12 *713:A 0.000159898
88 *106:50 *710:A1 0.00013642
89 *110:16 *132:56 2.98613e-05
90 *110:43 *132:81 4.87849e-05
91 *129:49 *132:6 0.000660672
92 *129:49 *132:12 8.23457e-05
93 *129:68 *132:12 9.12341e-05
94 *129:68 *132:31 0.000394354
95 *129:68 *132:56 6.38291e-05
*RES
1 *688:X *132:6 11.71 
2 *132:6 *132:12 6.725 
3 *132:12 *710:A1 20.83 
4 *132:12 *132:31 8.01 
5 *132:31 *780:A1_N 4.75125 
6 *132:31 *132:56 20.0475 
7 *132:56 *715:B 8.67543 
8 *132:56 *132:81 11.3634 
9 *132:81 *690:C 20.71 
10 *132:81 *713:A 9.45 
11 *132:6 *711:B 19.865 
*END

*D_NET *133 0.0156456
*CONN
*I *715:C I *D sky130_fd_sc_hd__and3_1
*I *690:D I *D sky130_fd_sc_hd__and4_2
*I *713:B I *D sky130_fd_sc_hd__and3_1
*I *689:X O *D sky130_fd_sc_hd__and2_1
*CAP
1 *715:C 0.00119208
2 *690:D 0.00126508
3 *713:B 7.156e-05
4 *689:X 0.000355128
5 *133:30 0.00226604
6 *133:10 0.00247661
7 *690:D *707:A 0.000212771
8 *690:D *717:A 2.97522e-05
9 *690:D *759:A 0.000232258
10 *690:D *816:CLK 4.66108e-05
11 *690:D *825:CLK 2.92496e-05
12 *690:D *834:CLK 0.00010961
13 *690:D *134:6 3.51072e-05
14 *690:D *140:71 0.000134229
15 *690:D *161:8 8.73389e-06
16 *690:D *168:26 0.000153816
17 *713:B *718:B1 9.14049e-05
18 *713:B *772:B1 4.66108e-05
19 *715:C *715:A 0.000136021
20 *715:C *733:B 9.8308e-05
21 *715:C *168:82 0.000144846
22 *715:C *172:18 4.46271e-05
23 *133:10 *714:A1 8.40269e-05
24 *133:10 *733:B 0.000454081
25 *133:10 *768:B 0.000444089
26 *133:10 *854:A 0.000132709
27 *133:10 *158:20 8.40213e-05
28 *133:30 *693:A 0.000102013
29 *133:30 *748:B 0.000178227
30 *133:30 *748:C 0.00015426
31 *133:30 *834:CLK 0.000378899
32 *133:30 *151:18 0.000152586
33 *133:30 *168:26 0.000377735
34 *133:30 *168:60 0.000118081
35 *690:C *690:D 5.29485e-05
36 *713:A *713:B 9.14049e-05
37 *715:B *715:C 7.54776e-05
38 *726:B *690:D 4.21244e-05
39 *772:A1 *133:10 3.69766e-05
40 *772:A1 *133:30 6.52411e-05
41 *785:A *133:30 5.1843e-05
42 *796:A *715:C 0.000305728
43 *812:A *133:30 4.88555e-05
44 *818:RESET_B *133:10 6.36438e-07
45 *820:D *133:10 2.12295e-05
46 *824:RESET_B *133:30 0.000490083
47 *825:RESET_B *715:C 3.37859e-05
48 *836:D *715:C 3.79595e-05
49 *836:RESET_B *715:C 0
50 *840:D *133:30 0.000526566
51 *841:RESET_B *690:D 0.000259833
52 *29:18 *715:C 0.000304063
53 *31:20 *715:C 3.10059e-05
54 *39:10 *690:D 0
55 *61:24 *690:D 7.23602e-05
56 *91:40 *715:C 0.00044328
57 *99:14 *715:C 4.54851e-05
58 *99:14 *133:10 7.9965e-05
59 *109:14 *133:30 3.05646e-05
60 *116:20 *133:30 0.000486048
61 *132:81 *715:C 0.000170947
*RES
1 *689:X *133:10 12.84 
2 *133:10 *133:30 31.675 
3 *133:30 *713:B 7.175 
4 *133:30 *690:D 28.275 
5 *133:10 *715:C 20.7614 
*END

*D_NET *134 0.0188774
*CONN
*I *717:A I *D sky130_fd_sc_hd__nand2_1
*I *702:C I *D sky130_fd_sc_hd__nand4b_2
*I *696:C I *D sky130_fd_sc_hd__and4_1
*I *704:A2 I *D sky130_fd_sc_hd__a31o_1
*I *706:C I *D sky130_fd_sc_hd__and4_1
*I *690:X O *D sky130_fd_sc_hd__and4_2
*CAP
1 *717:A 0.00104453
2 *702:C 9.06988e-05
3 *696:C 0.000555137
4 *704:A2 0.000552508
5 *706:C 6.52939e-05
6 *690:X 0
7 *134:31 0.00283132
8 *134:25 0.00227768
9 *134:6 0.000762359
10 *134:4 0.00127829
11 *696:C *696:A 0
12 *696:C *829:CLK 0.000189113
13 *696:C *139:98 0.00017657
14 *696:C *170:16 0.000661153
15 *702:C *759:A 4.66826e-05
16 *702:C *772:B1 4.66826e-05
17 *704:A2 *704:A1 0.000242109
18 *704:A2 *846:A 0.000179987
19 *704:A2 *135:22 1.01661e-05
20 *704:A2 *135:30 0.000191343
21 *704:A2 *139:98 0.000237859
22 *704:A2 *155:14 9.38026e-05
23 *717:A *738:A3 0
24 *717:A *759:A 0.000269873
25 *717:A *147:14 0.000596578
26 *134:6 *690:B 2.81365e-05
27 *134:25 *144:16 9.04636e-05
28 *134:31 *162:12 0.000666038
29 *690:C *134:6 4.31222e-06
30 *690:D *717:A 2.97522e-05
31 *690:D *134:6 3.51072e-05
32 *717:B *706:C 3.57349e-05
33 *717:B *134:6 4.66108e-05
34 *717:B *134:25 9.04636e-05
35 *718:A1 *134:31 9.03537e-05
36 *719:B *134:31 7.60474e-05
37 *752:A_N *696:C 0.000661153
38 *755:B *696:C 2.02052e-05
39 *780:B1 *704:A2 0.000506793
40 *798:A *704:A2 0.000232506
41 *814:D *134:25 9.2994e-05
42 *828:RESET_B *717:A 0
43 *829:D *696:C 0.00033717
44 *829:D *704:A2 8.86092e-05
45 *5:13 *134:31 0.000795929
46 *22:14 *134:25 9.06149e-05
47 *39:10 *717:A 0
48 *64:16 *717:A 0.0009183
49 *77:58 *706:C 4.66108e-05
50 *82:154 *702:C 0.000204962
51 *82:154 *134:25 0.000338691
52 *83:18 *134:25 1.72133e-05
53 *121:12 *702:C 0.000211578
54 *121:12 *134:25 0.000461067
55 *130:101 *134:25 0.00018955
56 *130:107 *704:A2 7.06865e-05
*RES
1 *690:X *134:4 1.6 
2 *134:4 *134:6 2.865 
3 *134:6 *706:C 2.395 
4 *134:6 *134:25 16.9575 
5 *134:25 *134:31 4.59227 
6 *134:31 *704:A2 18.6525 
7 *134:31 *696:C 20.2575 
8 *134:25 *702:C 6.9225 
9 *134:4 *717:A 28.73 
*END

*D_NET *135 0.0182743
*CONN
*I *763:A I *D sky130_fd_sc_hd__nand2_1
*I *768:C I *D sky130_fd_sc_hd__and4_1
*I *770:D I *D sky130_fd_sc_hd__and4_1
*I *695:A I *D sky130_fd_sc_hd__and4_2
*I *691:X O *D sky130_fd_sc_hd__and4_1
*CAP
1 *763:A 2.14552e-05
2 *768:C 0.00161786
3 *770:D 1.42455e-05
4 *695:A 0.000167345
5 *691:X 0.000773756
6 *135:30 0.000789887
7 *135:22 0.00245967
8 *135:14 0.00102872
9 *695:A *770:C 1.57505e-05
10 *768:C *768:A 2.74775e-05
11 *768:C *768:B 2.49909e-05
12 *768:C *771:B2 1.52862e-05
13 *768:C *820:CLK 2.15594e-05
14 *768:C *139:12 8.74965e-05
15 *768:C *139:14 0.000272044
16 *768:C *143:90 0.000788508
17 *768:C *145:18 1.80454e-05
18 *770:D *770:C 1.91597e-05
19 *135:14 *733:B 0.000116165
20 *135:14 *846:A 0.000146403
21 *135:14 *853:A 0.00168267
22 *135:22 *846:A 0.000315355
23 *135:22 *139:76 0.00026716
24 *135:22 *155:14 0.000401162
25 *135:30 *704:A1 2.0187e-05
26 *135:30 *766:A 1.32102e-05
27 *135:30 *818:CLK 2.19562e-06
28 *695:B *135:30 3.1562e-06
29 *704:A2 *135:22 1.01661e-05
30 *704:A2 *135:30 0.000191343
31 *704:A3 *135:30 0.000237067
32 *705:A3 *695:A 1.19928e-05
33 *709:A1 *695:A 0.000103626
34 *709:A1 *770:D 4.66108e-05
35 *709:A2 *695:A 4.87465e-06
36 *720:A *768:C 2.23485e-05
37 *724:B *768:C 1.90838e-05
38 *736:A *768:C 0.00162963
39 *750:A *768:C 0.000777196
40 *752:B *135:30 3.68942e-05
41 *766:B *768:C 0.000301499
42 *771:A1_N *768:C 9.29751e-06
43 *771:A2_N *768:C 8.58107e-05
44 *813:D *695:A 4.40444e-05
45 *816:RESET_B *135:14 0.000627873
46 *825:RESET_B *135:14 0.000137578
47 *829:D *768:C 4.77719e-05
48 *829:D *135:22 0.000446729
49 *831:D *768:C 0.000700752
50 *43:38 *135:14 0.000375235
51 *75:56 *695:A 8.41307e-05
52 *77:14 *695:A 9.76407e-06
53 *77:22 *135:30 0.000200098
54 *97:16 *768:C 4.88428e-05
55 *99:14 *135:14 4.41506e-05
56 *109:14 *135:14 0.00022786
57 *110:126 *768:C 0.000575375
58 *116:20 *135:14 1.1561e-05
59 *119:10 *768:C 2.85623e-05
60 *130:107 *135:14 3.09088e-05
61 *130:107 *135:22 1.47347e-05
*RES
1 *691:X *135:14 26.075 
2 *135:14 *135:22 12.325 
3 *135:22 *135:30 12.715 
4 *135:30 *695:A 5.29 
5 *135:30 *770:D 2.05 
6 *135:22 *768:C 49.685 
7 *135:14 *763:A 1.96 
*END

*D_NET *136 0.0103249
*CONN
*I *846:A I *D sky130_fd_sc_hd__clkbuf_16
*I *847:A I *D sky130_fd_sc_hd__clkbuf_16
*I *845:A I *D sky130_fd_sc_hd__clkbuf_16
*I *844:A I *D sky130_fd_sc_hd__clkbuf_16
*I *843:X O *D sky130_fd_sc_hd__clkbuf_16
*CAP
1 *846:A 0.000636865
2 *847:A 0
3 *845:A 0
4 *844:A 0.000236613
5 *843:X 1.24003e-05
6 *136:32 0.00133072
7 *136:14 0.000876831
8 *136:8 0.00134647
9 *844:A *697:A 0.000137556
10 *846:A *733:A 4.77757e-05
11 *846:A *733:B 0.000116156
12 *846:A *139:76 2.16833e-05
13 *846:A *139:85 1.03423e-05
14 *846:A *155:14 0.000204206
15 *846:A *163:24 6.83447e-05
16 *136:8 *707:A 2.68464e-05
17 *136:8 *854:A 4.77719e-05
18 *136:14 *697:A 8.61546e-05
19 *136:14 *151:14 1.16981e-05
20 *136:32 *714:A1 0
21 *136:32 *759:C 0.000205465
22 *136:32 *767:A 0.000234725
23 *136:32 *146:53 0.000119583
24 *136:32 *151:14 0.000143239
25 *697:B *844:A 6.80137e-05
26 *704:A2 *846:A 0.000179987
27 *714:A2 *136:32 0.000445589
28 *778:B *136:14 0
29 *813:RESET_B *136:14 0.000288136
30 *813:RESET_B *136:32 0.00011099
31 *818:RESET_B *844:A 4.82863e-05
32 *827:RESET_B *136:14 0.000846621
33 *831:RESET_B *844:A 8.70529e-05
34 *834:D *136:32 0
35 *43:38 *136:14 0.000275656
36 *91:40 *846:A 8.73389e-06
37 *91:40 *136:32 1.56428e-05
38 *109:14 *846:A 0.0001947
39 *110:58 *846:A 6.95753e-05
40 *126:32 *136:14 0
41 *126:32 *136:32 0
42 *129:14 *844:A 0.000342551
43 *129:14 *136:14 0.00016031
44 *130:107 *846:A 0.000780695
45 *130:107 *136:32 1.91597e-05
46 *135:14 *846:A 0.000146403
47 *135:22 *846:A 0.000315355
*RES
1 *843:X *136:8 4.05 
2 *136:8 *136:14 17.615 
3 *136:14 *844:A 7.225 
4 *136:14 *845:A 1.6 
5 *136:8 *136:32 16.835 
6 *136:32 *847:A 1.6 
7 *136:32 *846:A 25.26 
*END

*D_NET *137 0.0118569
*CONN
*I *848:A I *D sky130_fd_sc_hd__clkbuf_4
*I *833:CLK I *D sky130_fd_sc_hd__dfrtp_2
*I *822:CLK I *D sky130_fd_sc_hd__dfrtp_2
*I *823:CLK I *D sky130_fd_sc_hd__dfrtp_4
*I *837:CLK I *D sky130_fd_sc_hd__dfrtp_1
*I *815:CLK I *D sky130_fd_sc_hd__dfrtp_4
*I *838:CLK I *D sky130_fd_sc_hd__dfrtp_1
*I *831:CLK I *D sky130_fd_sc_hd__dfrtp_1
*I *844:X O *D sky130_fd_sc_hd__clkbuf_16
*CAP
1 *848:A 2.85626e-05
2 *833:CLK 1.1852e-05
3 *822:CLK 4.18289e-05
4 *823:CLK 0.000252117
5 *837:CLK 0.000299379
6 *815:CLK 5.53193e-05
7 *838:CLK 0.000912234
8 *831:CLK 0.000438024
9 *844:X 5.80219e-05
10 *137:70 0.000387346
11 *137:66 0.000223665
12 *137:64 0.00025316
13 *137:27 0.00110862
14 *137:25 0.000440448
15 *137:10 0.000730954
16 *137:8 0.000457136
17 *822:CLK *165:10 4.66742e-05
18 *823:CLK *166:22 0.000703422
19 *831:CLK *710:B1 5.46728e-05
20 *833:CLK *760:B1 2.11084e-05
21 *837:CLK *167:16 0.000180675
22 *838:CLK *760:B1 7.06865e-05
23 *838:CLK *164:30 8.75985e-06
24 *137:8 *710:B1 1.91597e-05
25 *137:10 *710:B1 7.18183e-05
26 *137:64 *150:10 0.000116516
27 *137:64 *166:22 0.000249739
28 *137:66 *166:22 0.000184318
29 *137:70 *166:22 0.000151031
30 *705:B1 *815:CLK 0.000120655
31 *712:B *823:CLK 0.000125005
32 *728:A *848:A 0.000120655
33 *735:B *837:CLK 0.000795209
34 *739:A_N *838:CLK 9.14049e-05
35 *743:A *833:CLK 2.75229e-05
36 *743:B *848:A 0.000120655
37 *765:A *823:CLK 5.13924e-05
38 *815:D *815:CLK 6.71882e-05
39 *818:D *137:64 6.84056e-05
40 *818:D *137:66 4.79946e-05
41 *822:D *823:CLK 0.000114602
42 *822:D *137:70 3.59531e-06
43 *831:RESET_B *137:10 2.91667e-05
44 *838:D *838:CLK 3.96284e-05
45 *838:RESET_B *822:CLK 9.50298e-05
46 *838:RESET_B *838:CLK 0.000116307
47 *18:20 *823:CLK 5.44006e-05
48 *18:20 *137:66 0.000115669
49 *18:20 *137:70 5.36871e-05
50 *75:56 *837:CLK 0.000761404
51 *75:56 *137:27 0.000216606
52 *75:58 *838:CLK 0.000234626
53 *75:58 *137:27 0.000156614
54 *82:10 *838:CLK 8.40269e-05
55 *82:46 *838:CLK 0.00013404
56 *82:46 *137:27 0.000172219
57 *82:67 *837:CLK 8.3763e-05
58 *82:67 *137:27 2.06963e-05
59 *89:8 *823:CLK 0.000157429
*RES
1 *844:X *137:8 2.41 
2 *137:8 *137:10 3.21 
3 *137:10 *831:CLK 6.67 
4 *137:10 *137:25 2 
5 *137:25 *137:27 4.44 
6 *137:27 *838:CLK 16.185 
7 *137:27 *815:CLK 5.1 
8 *137:25 *837:CLK 15.18 
9 *137:8 *137:64 5.165 
10 *137:64 *137:66 3.675 
11 *137:66 *137:70 2.34 
12 *137:70 *823:CLK 12.12 
13 *137:70 *822:CLK 4.755 
14 *137:66 *833:CLK 4.05 
15 *137:64 *848:A 4.74 
*END

*D_NET *138 0.00723321
*CONN
*I *826:CLK I *D sky130_fd_sc_hd__dfrtp_2
*I *849:A I *D sky130_fd_sc_hd__clkbuf_4
*I *813:CLK I *D sky130_fd_sc_hd__dfrtp_4
*I *839:CLK I *D sky130_fd_sc_hd__dfrtp_1
*I *835:CLK I *D sky130_fd_sc_hd__dfrtp_2
*I *827:CLK I *D sky130_fd_sc_hd__dfrtp_1
*I *832:CLK I *D sky130_fd_sc_hd__dfrtp_1
*I *821:CLK I *D sky130_fd_sc_hd__dfrtp_2
*I *845:X O *D sky130_fd_sc_hd__clkbuf_16
*CAP
1 *826:CLK 0.000104521
2 *849:A 0
3 *813:CLK 0.000316077
4 *839:CLK 0.000125576
5 *835:CLK 0
6 *827:CLK 3.63146e-05
7 *832:CLK 1.95624e-05
8 *821:CLK 0.00039019
9 *845:X 0
10 *138:65 0.000545331
11 *138:63 0.000388027
12 *138:34 3.63146e-05
13 *138:12 0.000574919
14 *138:10 0.000264824
15 *138:8 0.000353626
16 *138:6 0.000182644
17 *821:CLK *778:A 7.01093e-05
18 *827:CLK *154:8 4.70723e-05
19 *839:CLK *159:10 4.2506e-05
20 *138:8 *152:50 0.000126367
21 *138:10 *152:35 4.81484e-06
22 *138:10 *154:27 4.69332e-05
23 *138:12 *778:A 9.77845e-05
24 *138:12 *154:27 3.05238e-05
25 *138:63 *152:50 5.26831e-05
26 *739:A_N *832:CLK 3.45588e-05
27 *761:A1 *813:CLK 0.000122659
28 *777:A *813:CLK 1.77665e-05
29 *778:B *813:CLK 0.000503413
30 *810:A *138:8 0.000104306
31 *810:A *138:10 7.70828e-05
32 *813:D *813:CLK 7.91111e-05
33 *821:D *821:CLK 0.000288239
34 *824:D *821:CLK 0.00019783
35 *824:D *138:8 4.72794e-05
36 *824:D *138:10 0.000119227
37 *824:D *138:12 0.000184963
38 *824:D *138:63 5.79947e-05
39 *826:D *813:CLK 0.000122184
40 *826:D *826:CLK 0.000219152
41 *826:D *138:65 0.000472307
42 *831:RESET_B *839:CLK 0.000232207
43 *831:RESET_B *138:8 0.000262186
44 *831:RESET_B *138:10 9.50342e-06
45 *832:D *832:CLK 8.58007e-05
46 *839:D *839:CLK 6.86863e-05
47 *96:12 *827:CLK 7.00322e-05
*RES
1 *845:X *138:6 3.6 
2 *138:6 *138:8 4.185 
3 *138:8 *138:10 2.655 
4 *138:10 *138:12 4.185 
5 *138:12 *821:CLK 12.375 
6 *138:12 *832:CLK 4.395 
7 *138:10 *138:34 2 
8 *138:34 *827:CLK 2.74 
9 *138:34 *835:CLK 1.6 
10 *138:8 *839:CLK 6.84 
11 *138:6 *138:63 3.38 
12 *138:63 *138:65 4.59 
13 *138:65 *813:CLK 13.52 
14 *138:65 *849:A 1.6 
15 *138:63 *826:CLK 3.775 
*END

*D_NET *139 0.0131937
*CONN
*I *829:CLK I *D sky130_fd_sc_hd__dfrtp_2
*I *819:CLK I *D sky130_fd_sc_hd__dfrtp_2
*I *836:CLK I *D sky130_fd_sc_hd__dfrtp_1
*I *850:A I *D sky130_fd_sc_hd__clkbuf_4
*I *830:CLK I *D sky130_fd_sc_hd__dfrtp_1
*I *818:CLK I *D sky130_fd_sc_hd__dfrtp_2
*I *817:CLK I *D sky130_fd_sc_hd__dfrtp_2
*I *820:CLK I *D sky130_fd_sc_hd__dfrtp_1
*I *846:X O *D sky130_fd_sc_hd__clkbuf_16
*CAP
1 *829:CLK 0.000170605
2 *819:CLK 0
3 *836:CLK 0.000738113
4 *850:A 0
5 *830:CLK 3.5074e-05
6 *818:CLK 0.00040716
7 *817:CLK 0.000368908
8 *820:CLK 0.000224272
9 *846:X 0.000142466
10 *139:98 0.00048731
11 *139:85 0.00116324
12 *139:76 0.0002614
13 *139:14 0.000810413
14 *139:12 0.000729924
15 *139:10 0.000231527
16 *139:8 0.000386362
17 *817:CLK *689:A 8.23457e-05
18 *817:CLK *158:20 5.74791e-05
19 *818:CLK *692:D 8.99419e-05
20 *818:CLK *704:A1 3.112e-05
21 *818:CLK *766:A 4.8962e-05
22 *818:CLK *768:B 3.45123e-05
23 *818:CLK *148:24 6.33482e-05
24 *820:CLK *166:63 7.94658e-05
25 *829:CLK *696:A 6.05989e-05
26 *829:CLK *700:A 4.77807e-05
27 *829:CLK *161:67 4.9655e-05
28 *830:CLK *168:82 4.71087e-05
29 *836:CLK *155:14 1.26248e-05
30 *836:CLK *172:18 1.21869e-05
31 *139:85 *155:14 2.19562e-06
32 *696:C *829:CLK 0.000189113
33 *696:C *139:98 0.00017657
34 *704:A2 *139:98 0.000237859
35 *704:A3 *817:CLK 3.00381e-05
36 *709:A1 *818:CLK 8.23457e-05
37 *721:B *829:CLK 1.88656e-05
38 *725:C1 *817:CLK 0.000183145
39 *725:C1 *820:CLK 0.000119866
40 *735:A *817:CLK 9.53428e-06
41 *736:A *820:CLK 0.000263289
42 *737:B *817:CLK 2.75229e-05
43 *750:A *820:CLK 4.66108e-05
44 *750:A *139:76 2.09991e-05
45 *754:B *830:CLK 3.12916e-05
46 *762:A1 *818:CLK 2.95168e-05
47 *768:C *820:CLK 2.15594e-05
48 *768:C *139:12 8.74965e-05
49 *768:C *139:14 0.000272044
50 *780:B1 *818:CLK 4.47073e-05
51 *780:B1 *829:CLK 2.10693e-05
52 *780:B1 *139:98 0.000789554
53 *825:RESET_B *139:8 0.000193806
54 *836:D *836:CLK 0.000207619
55 *836:RESET_B *836:CLK 4.11729e-05
56 *837:RESET_B *820:CLK 0.000336053
57 *846:A *139:76 2.16833e-05
58 *846:A *139:85 1.03423e-05
59 *29:18 *830:CLK 8.41384e-05
60 *55:22 *818:CLK 4.77719e-05
61 *55:22 *139:10 0.000184791
62 *55:22 *139:12 0.000234467
63 *55:22 *139:76 0.000126408
64 *99:14 *817:CLK 0.000856247
65 *110:16 *820:CLK 0.000304726
66 *110:16 *139:12 6.32305e-06
67 *110:16 *139:14 0.000315598
68 *119:10 *139:10 9.63468e-05
69 *119:10 *139:12 8.70733e-05
70 *119:10 *139:76 3.86607e-05
71 *130:107 *139:76 0.000152047
72 *135:22 *139:76 0.00026716
73 *135:30 *818:CLK 2.19562e-06
*RES
1 *846:X *139:8 5.43 
2 *139:8 *139:10 2.4 
3 *139:10 *139:12 3.165 
4 *139:12 *139:14 5.715 
5 *139:14 *820:CLK 10.845 
6 *139:14 *817:CLK 12.795 
7 *139:12 *818:CLK 13.78 
8 *139:10 *830:CLK 4.755 
9 *139:8 *139:76 6.5 
10 *139:76 *850:A 1.6 
11 *139:76 *139:85 1.41 
12 *139:85 *836:CLK 10.255 
13 *139:85 *139:98 11.54 
14 *139:98 *819:CLK 3.6 
15 *139:98 *829:CLK 8.235 
*END

*D_NET *140 0.0115444
*CONN
*I *825:CLK I *D sky130_fd_sc_hd__dfrtp_4
*I *816:CLK I *D sky130_fd_sc_hd__dfrtp_4
*I *834:CLK I *D sky130_fd_sc_hd__dfrtp_1
*I *841:CLK I *D sky130_fd_sc_hd__dfrtp_2
*I *840:CLK I *D sky130_fd_sc_hd__dfrtp_1
*I *824:CLK I *D sky130_fd_sc_hd__dfrtp_1
*I *828:CLK I *D sky130_fd_sc_hd__dfrtp_1
*I *814:CLK I *D sky130_fd_sc_hd__dfrtp_4
*I *847:X O *D sky130_fd_sc_hd__clkbuf_16
*CAP
1 *825:CLK 0.000253839
2 *816:CLK 0.000103221
3 *834:CLK 0.000196845
4 *841:CLK 0
5 *840:CLK 0.000304678
6 *824:CLK 2.33443e-05
7 *828:CLK 0.000283051
8 *814:CLK 0.000487551
9 *847:X 0
10 *140:73 0.000300066
11 *140:71 0.000353209
12 *140:62 0.000200592
13 *140:30 0.000505674
14 *140:26 0.000355236
15 *140:10 0.0010373
16 *140:6 0.000343055
17 *814:CLK *714:A1 0.000119246
18 *816:CLK *168:26 0.000141874
19 *825:CLK *718:B1 2.31111e-05
20 *834:CLK *168:26 0.000122497
21 *840:CLK *748:C 5.8678e-05
22 *840:CLK *759:C 2.69493e-05
23 *840:CLK *767:A 0
24 *840:CLK *151:18 0.000111149
25 *140:30 *690:B 0.000121027
26 *140:30 *776:A 6.33103e-05
27 *140:30 *153:50 8.247e-05
28 *140:71 *718:B1 7.42725e-05
29 *690:D *816:CLK 4.66108e-05
30 *690:D *825:CLK 2.92496e-05
31 *690:D *834:CLK 0.00010961
32 *690:D *140:71 0.000134229
33 *702:A_N *825:CLK 8.88631e-05
34 *709:B1 *824:CLK 8.49205e-05
35 *709:B1 *140:30 0.00027194
36 *713:A *825:CLK 1.17114e-05
37 *714:A2 *814:CLK 0.000171009
38 *718:A1 *825:CLK 2.24912e-05
39 *719:B *825:CLK 0.000101789
40 *726:B *825:CLK 9.10224e-05
41 *753:A *140:10 0.000175493
42 *785:A *840:CLK 0.000148485
43 *814:D *814:CLK 0.000576266
44 *814:D *828:CLK 0.000120182
45 *824:D *824:CLK 4.66826e-05
46 *824:D *140:30 4.35348e-05
47 *825:RESET_B *825:CLK 0.000194694
48 *828:D *828:CLK 0.000153816
49 *830:D *140:10 0.000456141
50 *834:D *840:CLK 1.9006e-05
51 *43:38 *840:CLK 5.53249e-06
52 *57:12 *825:CLK 0
53 *61:24 *140:10 0.000838789
54 *61:24 *140:26 0.000199551
55 *61:24 *140:62 0.000113383
56 *61:24 *140:71 3.24385e-05
57 *68:20 *140:10 0.000205444
58 *68:20 *140:26 9.9626e-05
59 *68:20 *140:62 0.000125948
60 *68:20 *140:71 4.15443e-05
61 *77:37 *140:30 6.28212e-05
62 *126:32 *814:CLK 8.23457e-05
63 *128:105 *816:CLK 6.71882e-05
64 *128:115 *816:CLK 9.96764e-05
65 *128:115 *834:CLK 0.000397595
66 *128:115 *840:CLK 3.59531e-06
67 *133:30 *834:CLK 0.000378899
*RES
1 *847:X *140:6 3.6 
2 *140:6 *140:10 12.05 
3 *140:10 *814:CLK 12.055 
4 *140:10 *828:CLK 6.19 
5 *140:6 *140:26 2.4 
6 *140:26 *140:30 6.935 
7 *140:30 *824:CLK 2.395 
8 *140:30 *840:CLK 14.37 
9 *140:26 *140:62 2.445 
10 *140:62 *841:CLK 3.6 
11 *140:62 *140:71 2.4 
12 *140:71 *140:73 2 
13 *140:73 *834:CLK 8.26 
14 *140:73 *816:CLK 4.465 
15 *140:71 *825:CLK 9.36 
*END

*D_NET *141 0.0293918
*CONN
*I *723:A I *D sky130_fd_sc_hd__nand2_1
*I *700:A I *D sky130_fd_sc_hd__nor2_1
*I *706:A I *D sky130_fd_sc_hd__and4_1
*I *698:A2 I *D sky130_fd_sc_hd__a21oi_1
*I *687:C I *D sky130_fd_sc_hd__and3_1
*I *708:A I *D sky130_fd_sc_hd__inv_2
*I *813:Q O *D sky130_fd_sc_hd__dfrtp_4
*CAP
1 *723:A 0.000461213
2 *700:A 0.00166312
3 *706:A 1.36534e-05
4 *698:A2 0.000984797
5 *687:C 0.000591621
6 *708:A 0.000253991
7 *813:Q 0
8 *141:79 0.00232511
9 *141:71 0.00148786
10 *141:37 0.00187975
11 *141:14 0.00184329
12 *141:4 0.00166429
13 *687:C *687:B 9.76964e-06
14 *687:C *760:A1 0.000116027
15 *687:C *760:B1 3.92502e-05
16 *687:C *771:B2 0.000376487
17 *687:C *774:A 0
18 *698:A2 *142:45 6.47333e-05
19 *698:A2 *164:47 8.27745e-06
20 *698:A2 *164:87 4.36573e-06
21 *700:A *748:B 0.000195396
22 *700:A *748:C 0.000317833
23 *700:A *148:10 3.10303e-05
24 *700:A *161:21 3.26653e-05
25 *700:A *165:77 8.33066e-06
26 *700:A *168:16 0.000133657
27 *706:A *690:B 4.66108e-05
28 *708:A *144:87 8.23457e-05
29 *708:A *158:20 0.000276655
30 *723:A *722:A 0.000264338
31 *723:A *738:B1 3.71882e-05
32 *723:A *169:16 0.000775547
33 *723:A *169:54 0.00048634
34 *141:14 *738:A2 0.00125554
35 *141:14 *738:B1 9.85357e-05
36 *141:14 *159:23 8.14335e-05
37 *141:37 *771:B2 0.000139573
38 *141:37 *157:14 0.000556429
39 *141:71 *738:B1 0.000211827
40 *141:79 *707:A 0.00111197
41 *141:79 *169:54 0.000769764
42 *695:D *698:A2 4.77719e-05
43 *700:B *700:A 5.31158e-06
44 *710:A2 *698:A2 1.72095e-05
45 *711:B *687:C 0.00075206
46 *716:A1_N *723:A 0.000127788
47 *716:A1_N *141:79 0.000169585
48 *728:A *708:A 0.000275282
49 *728:A *141:37 0.000173489
50 *731:A2 *698:A2 0
51 *736:A *141:37 0.00033014
52 *749:C *700:A 0.00154738
53 *756:B *687:C 1.92979e-05
54 *764:B *141:79 0
55 *772:A1 *700:A 0
56 *772:A2 *700:A 0
57 *773:B *700:A 0
58 *773:B *706:A 4.66108e-05
59 *774:B *687:C 1.39456e-05
60 *777:A *141:14 4.77757e-05
61 *780:A2_N *708:A 8.23457e-05
62 *793:A *141:79 0.000134798
63 *799:A *700:A 0.000421821
64 *815:RESET_B *687:C 6.1265e-05
65 *815:RESET_B *708:A 1.04292e-05
66 *815:RESET_B *141:14 2.03947e-05
67 *815:RESET_B *141:37 7.70424e-07
68 *816:D *700:A 0.000350882
69 *816:D *141:79 0.000348408
70 *816:RESET_B *700:A 0.00029883
71 *816:RESET_B *141:79 0.000301963
72 *821:RESET_B *141:79 0.000646227
73 *829:CLK *700:A 4.77807e-05
74 *829:RESET_B *700:A 0.000613311
75 *831:D *698:A2 0.000283217
76 *835:RESET_B *723:A 4.99619e-05
77 *47:12 *698:A2 3.83194e-05
78 *73:12 *723:A 0.000770756
79 *82:20 *687:C 2.90051e-05
80 *95:37 *698:A2 0.000539729
81 *96:12 *723:A 1.83847e-05
82 *121:12 *700:A 0
83 *131:20 *687:C 4.89395e-05
*RES
1 *813:Q *141:4 1.6 
2 *141:4 *141:14 21.625 
3 *141:14 *708:A 10.955 
4 *141:14 *141:37 11.7125 
5 *141:37 *687:C 17.9925 
6 *141:37 *698:A2 7.87503 
7 *141:4 *141:71 5.625 
8 *141:71 *141:79 24.845 
9 *141:79 *706:A 4.05 
10 *141:79 *700:A 49.45 
11 *141:71 *723:A 22.085 
*END

*D_NET *142 0.0282013
*CONN
*I *707:A I *D sky130_fd_sc_hd__xor2_1
*I *699:B I *D sky130_fd_sc_hd__or3b_2
*I *729:B I *D sky130_fd_sc_hd__or3_1
*I *725:A2 I *D sky130_fd_sc_hd__a2111o_1
*I *724:A I *D sky130_fd_sc_hd__nor2_1
*I *687:B I *D sky130_fd_sc_hd__and3_1
*I *731:A1 I *D sky130_fd_sc_hd__a21boi_1
*I *698:A1 I *D sky130_fd_sc_hd__a21oi_1
*I *727:A2 I *D sky130_fd_sc_hd__o21a_1
*I *814:Q O *D sky130_fd_sc_hd__dfrtp_4
*CAP
1 *707:A 0.00145861
2 *699:B 0.000147087
3 *729:B 9.36289e-05
4 *725:A2 0.000476
5 *724:A 9.61142e-05
6 *687:B 4.47314e-05
7 *731:A1 0.000166145
8 *698:A1 0
9 *727:A2 4.92962e-05
10 *814:Q 9.40061e-05
11 *142:136 0.000428579
12 *142:130 0.00238638
13 *142:75 0.00117361
14 *142:58 0.00174814
15 *142:45 0.00147835
16 *142:20 0.00106797
17 *142:14 0.00122601
18 *142:10 0.00149437
19 *687:B *760:A1 5.04099e-05
20 *687:B *774:A 8.21408e-05
21 *699:B *144:66 4.65698e-05
22 *707:A *706:B 0.000196405
23 *707:A *854:A 0.000525508
24 *707:A *161:8 6.33103e-05
25 *707:A *161:21 3.09233e-05
26 *707:A *163:24 0.000121643
27 *707:A *166:63 0.000590298
28 *724:A *747:A 4.97729e-05
29 *724:A *143:90 6.63219e-06
30 *725:A2 *725:A1 7.51046e-05
31 *725:A2 *725:D1 0.000157097
32 *725:A2 *172:18 3.18964e-05
33 *727:A2 *145:16 0.00016031
34 *729:B *166:63 0.000118081
35 *142:20 *145:16 0.000108207
36 *142:45 *694:C 0.000341861
37 *142:45 *694:D 8.30853e-06
38 *142:45 *725:A1 0.000274064
39 *142:45 *734:B 0.000149894
40 *142:45 *143:55 0.000371298
41 *142:45 *164:47 1.29415e-05
42 *142:45 *164:87 4.38721e-06
43 *142:58 *143:26 7.32549e-05
44 *142:58 *143:34 8.40213e-05
45 *142:58 *168:88 0
46 *142:58 *175:10 9.68787e-05
47 *142:75 *747:A 0.000148019
48 *142:75 *166:14 0.000165215
49 *142:130 *854:A 0.00018955
50 *142:130 *163:24 8.80293e-06
51 *142:136 *163:24 0.000192125
52 *687:C *687:B 9.76964e-06
53 *690:C *707:A 1.66856e-05
54 *690:D *707:A 0.000212771
55 *695:D *142:45 9.47972e-06
56 *695:D *142:58 5.88334e-05
57 *698:A2 *142:45 6.47333e-05
58 *705:A2 *142:58 0.000121692
59 *707:B *707:A 8.49205e-05
60 *710:A1 *142:45 1.58088e-05
61 *712:A *142:45 0.000190532
62 *716:A1_N *707:A 0.000125228
63 *725:B1 *725:A2 0.000158175
64 *725:C1 *725:A2 4.0843e-05
65 *727:B1 *727:A2 8.52845e-05
66 *727:B1 *142:20 0.000118081
67 *731:B1_N *731:A1 0.000122202
68 *740:A *725:A2 1.59888e-05
69 *747:B *731:A1 5.69239e-05
70 *747:B *142:58 8.15467e-05
71 *760:A3 *724:A 0.000211277
72 *760:A3 *142:75 0.00133113
73 *761:A1 *142:130 9.08126e-05
74 *780:B1 *142:10 0.000258382
75 *784:A *727:A2 4.40028e-05
76 *793:A *707:A 0.000119227
77 *801:A *142:45 0.00011274
78 *814:D *707:A 4.41506e-05
79 *814:RESET_B *142:10 0.000258382
80 *814:RESET_B *142:14 0.000881948
81 *814:RESET_B *142:130 3.6355e-05
82 *816:RESET_B *707:A 0.000451035
83 *817:D *725:A2 0
84 *817:RESET_B *725:A2 0.000181232
85 *817:RESET_B *142:20 9.30787e-05
86 *818:RESET_B *699:B 7.23602e-05
87 *818:RESET_B *142:136 3.90649e-05
88 *820:D *142:136 0.000114813
89 *820:RESET_B *142:130 0
90 *837:D *142:58 0.000616256
91 *838:D *142:58 0
92 *5:13 *707:A 2.592e-05
93 *31:20 *725:A2 1.01155e-05
94 *31:20 *142:45 0
95 *89:26 *699:B 4.73798e-05
96 *89:26 *142:136 0.000200419
97 *97:16 *724:A 9.58678e-06
98 *106:26 *725:A2 3.83194e-05
99 *106:50 *142:58 1.61461e-05
100 *129:102 *142:130 0.000325081
101 *130:101 *707:A 0.00107882
102 *131:20 *142:58 0.000600947
103 *136:8 *707:A 2.68464e-05
104 *141:79 *707:A 0.00111197
*RES
1 *814:Q *142:10 8.765 
2 *142:10 *142:14 10.385 
3 *142:14 *142:20 4.265 
4 *142:20 *727:A2 3.445 
5 *142:20 *142:45 22.93 
6 *142:45 *698:A1 1.6 
7 *142:45 *142:58 17.0975 
8 *142:58 *731:A1 6.6975 
9 *142:58 *142:75 3.10173 
10 *142:75 *687:B 5.23625 
11 *142:75 *724:A 4.66183 
12 *142:14 *725:A2 16.435 
13 *142:10 *142:130 13.165 
14 *142:130 *142:136 6.23 
15 *142:136 *729:B 4.74 
16 *142:136 *699:B 6.06 
17 *142:130 *707:A 43.52 
*END

*D_NET *143 0.0199492
*CONN
*I *687:A I *D sky130_fd_sc_hd__and3_1
*I *722:B I *D sky130_fd_sc_hd__nor2_2
*I *698:B1 I *D sky130_fd_sc_hd__a21oi_1
*I *725:A1 I *D sky130_fd_sc_hd__a2111o_1
*I *699:C_N I *D sky130_fd_sc_hd__or3b_2
*I *703:A I *D sky130_fd_sc_hd__inv_2
*I *815:Q O *D sky130_fd_sc_hd__dfrtp_4
*CAP
1 *687:A 0
2 *722:B 0.000912487
3 *698:B1 0
4 *725:A1 0.000511351
5 *699:C_N 0.000639341
6 *703:A 1.93533e-05
7 *815:Q 0
8 *143:90 0.00130283
9 *143:55 0.00153829
10 *143:34 0.000588045
11 *143:26 0.00107302
12 *143:4 0.00128227
13 *699:C_N *144:87 0.00127411
14 *703:A *154:48 2.49909e-05
15 *722:B *722:A 7.64733e-05
16 *722:B *774:A 0.000132252
17 *722:B *857:A 0.00248346
18 *725:A1 *172:18 0.000238972
19 *143:34 *164:87 0.000481747
20 *143:55 *154:48 5.93408e-05
21 *143:90 *771:B2 0.000101052
22 *143:90 *774:A 0.000653548
23 AN[1] *722:B 5.0751e-05
24 *695:D *143:26 8.41307e-05
25 *695:D *143:34 8.23457e-05
26 *704:B1 *703:A 2.49909e-05
27 *704:B1 *143:55 6.33103e-05
28 *705:B1 *143:26 1.53142e-05
29 *712:A *143:26 0.000100082
30 *720:A *143:26 0.000104262
31 *724:A *143:90 6.63219e-06
32 *725:A2 *725:A1 7.51046e-05
33 *725:C1 *725:A1 0.000266259
34 *730:A *143:26 5.4003e-05
35 *731:A2 *143:26 2.42236e-05
36 *736:A *143:90 2.75145e-05
37 *746:B *143:34 0.000369326
38 *752:B *699:C_N 0.000191226
39 *757:A *722:B 0.00080488
40 *761:B1_N *143:26 0.000302831
41 *761:B1_N *143:90 0.000157551
42 *768:C *143:90 0.000788508
43 *774:B *722:B 0
44 *815:D *143:26 0.000562273
45 *815:RESET_B *143:26 0.000109232
46 *817:RESET_B *725:A1 0.000485623
47 *817:RESET_B *143:55 0.000324297
48 *818:D *143:26 4.73404e-05
49 *818:D *143:90 9.76407e-06
50 *836:D *699:C_N 0.000119756
51 *837:D *143:34 1.252e-05
52 *31:20 *143:34 0.000132821
53 *106:50 *143:34 5.89646e-05
54 *106:50 *143:55 0.000178569
55 *132:56 *699:C_N 0.000119246
56 *142:45 *725:A1 0.000274064
57 *142:45 *143:55 0.000371298
58 *142:58 *143:26 7.32549e-05
59 *142:58 *143:34 8.40213e-05
*RES
1 *815:Q *143:4 1.6 
2 *143:4 *143:26 24.56 
3 *143:26 *143:34 11.275 
4 *143:34 *703:A 2.05 
5 *143:34 *143:55 15.555 
6 *143:55 *699:C_N 16.485 
7 *143:55 *725:A1 14.4 
8 *143:26 *698:B1 1.6 
9 *143:4 *143:90 14.15 
10 *143:90 *722:B 30.165 
11 *143:90 *687:A 3.6 
*END

*D_NET *144 0.0245356
*CONN
*I *699:A I *D sky130_fd_sc_hd__or3b_2
*I *725:D1 I *D sky130_fd_sc_hd__a2111o_1
*I *727:A1 I *D sky130_fd_sc_hd__o21a_1
*I *729:A I *D sky130_fd_sc_hd__or3_1
*I *697:A I *D sky130_fd_sc_hd__xor2_1
*I *722:A I *D sky130_fd_sc_hd__nor2_2
*I *816:Q O *D sky130_fd_sc_hd__dfrtp_4
*CAP
1 *699:A 0
2 *725:D1 0.000218247
3 *727:A1 0
4 *729:A 4.65534e-05
5 *697:A 0.00066369
6 *722:A 0.000957094
7 *816:Q 0.000957525
8 *144:87 0.000991304
9 *144:66 0.00178156
10 *144:18 0.00198205
11 *144:16 0.00228074
12 *722:A *857:A 3.54294e-05
13 *722:A *169:16 0.000209258
14 *729:A *145:18 0.000183738
15 *144:18 *738:A2 1.48927e-05
16 *144:18 *738:A3 1.1071e-05
17 *144:87 *694:C 0.000263595
18 *144:87 *751:B1 0.000153816
19 *699:B *144:66 4.65698e-05
20 *699:C_N *144:87 0.00127411
21 *708:A *144:87 8.23457e-05
22 *717:B *144:16 0.00152554
23 *717:B *144:18 0.000163334
24 *722:B *722:A 7.64733e-05
25 *723:A *722:A 0.000264338
26 *725:A2 *725:D1 0.000157097
27 *725:C1 *725:D1 4.66108e-05
28 *751:A2 *144:87 0.000314028
29 *773:B *144:16 0.000305694
30 *780:A1_N *144:87 0.000119246
31 *780:A2_N *144:87 7.1312e-05
32 *780:B1 *144:87 3.83194e-05
33 *793:A *144:66 4.77757e-05
34 *814:D *144:16 0.000366487
35 *816:D *144:16 0.000301804
36 *831:RESET_B *697:A 0.000782136
37 *844:A *697:A 0.000137556
38 *31:20 *725:D1 0.000336367
39 *31:20 *144:87 0.000341552
40 *43:38 *144:66 8.49376e-05
41 *55:22 *144:66 0.000127248
42 *64:16 *722:A 0
43 *64:16 *144:18 0
44 *73:12 *697:A 0.000524012
45 *73:12 *722:A 5.23362e-05
46 *73:12 *144:16 0.000980718
47 *73:12 *144:18 0.000874388
48 *82:113 *144:66 0.00151199
49 *82:113 *144:87 0.000228235
50 *92:14 *144:18 0.000133913
51 *95:8 *722:A 0.000986269
52 *95:25 *722:A 3.23112e-05
53 *97:16 *729:A 0.000185411
54 *106:26 *144:87 5.83121e-06
55 *126:32 *144:66 0.000156765
56 *129:14 *697:A 0.000711256
57 *130:12 *144:66 7.48028e-05
58 *130:78 *144:66 0.000139305
59 *134:25 *144:16 9.04636e-05
60 *136:14 *697:A 8.61546e-05
*RES
1 *816:Q *144:16 31.545 
2 *144:16 *144:18 10.56 
3 *144:18 *722:A 25.41 
4 *144:18 *697:A 20.8875 
5 *144:16 *144:66 23.39 
6 *144:66 *729:A 7.745 
7 *144:66 *144:87 22.37 
8 *144:87 *727:A1 3.6 
9 *144:87 *725:D1 8.79 
10 *144:66 *699:A 1.6 
*END

*D_NET *145 0.0248792
*CONN
*I *732:A I *D sky130_fd_sc_hd__inv_2
*I *693:B I *D sky130_fd_sc_hd__and4_2
*I *733:B I *D sky130_fd_sc_hd__nand2_1
*I *738:A2 I *D sky130_fd_sc_hd__a31o_1
*I *734:B I *D sky130_fd_sc_hd__or2_1
*I *817:Q O *D sky130_fd_sc_hd__dfrtp_2
*CAP
1 *732:A 2.34732e-05
2 *693:B 0.000517828
3 *733:B 0.000755177
4 *738:A2 0.000792542
5 *734:B 0.000894064
6 *817:Q 4.78064e-05
7 *145:91 0.000854
8 *145:18 0.00193913
9 *145:16 0.00250173
10 *145:8 0.00185454
11 *693:B *842:A 0.000662769
12 *693:B *172:18 0.000276123
13 *732:A *715:A 0.000121023
14 *733:B *733:A 4.77757e-05
15 *733:B *738:A3 0.000129905
16 *733:B *768:B 7.88143e-06
17 *733:B *163:24 0.000377646
18 *734:B *694:C 0.000153685
19 *734:B *855:A 0.000733895
20 *734:B *154:48 0.000236044
21 *738:A2 *769:A1 0.000382378
22 *145:16 *164:87 0.000181376
23 *145:18 *768:B 3.32986e-05
24 *145:91 *715:A 0.000196045
25 *145:91 *164:87 0.000402743
26 *145:91 *164:93 0.000374302
27 *695:D *145:91 5.36944e-05
28 *704:B1 *734:B 0.000739237
29 *710:A1 *734:B 0.000149648
30 *715:C *733:B 9.8308e-05
31 *725:C1 *733:B 0.000274608
32 *725:C1 *145:18 0.000109786
33 *727:A2 *145:16 0.00016031
34 *727:B1 *145:16 0.000305529
35 *729:A *145:18 0.000183738
36 *740:A *733:B 0.000199724
37 *746:B *734:B 0.000119873
38 *750:A *733:B 7.12201e-05
39 *768:C *145:18 1.80454e-05
40 *769:A2 *738:A2 0.000521259
41 *769:B1_N *738:A2 0.000489642
42 *784:A *145:16 8.78284e-05
43 *801:A *734:B 4.41506e-05
44 *815:RESET_B *738:A2 5.53684e-05
45 *818:RESET_B *733:B 2.69493e-05
46 *830:D *738:A2 0.000808914
47 *830:RESET_B *732:A 0.00011077
48 *830:RESET_B *145:91 0.000340778
49 *840:D *693:B 5.12107e-05
50 *843:A *733:B 1.00941e-05
51 *846:A *733:B 0.000116156
52 *31:20 *693:B 0.00013978
53 *75:25 *145:91 0.000330861
54 *77:86 *693:B 8.53244e-05
55 *92:14 *738:A2 9.10613e-05
56 *97:16 *734:B 0.000134613
57 *97:16 *145:18 0.000165591
58 *99:14 *733:B 0.000152297
59 *106:26 *145:16 0.000185398
60 *106:26 *145:91 0.000306161
61 *106:50 *734:B 5.74784e-06
62 *109:14 *733:B 1.16578e-05
63 *110:126 *734:B 0.000178519
64 *110:126 *145:18 0.000424739
65 *116:20 *733:B 0.000692047
66 *129:70 *145:16 7.34143e-05
67 *129:102 *145:16 0.00015916
68 *133:10 *733:B 0.000454081
69 *135:14 *733:B 0.000116165
70 *141:14 *738:A2 0.00125554
71 *142:20 *145:16 0.000108207
72 *142:45 *734:B 0.000149894
73 *144:18 *738:A2 1.48927e-05
*RES
1 *817:Q *145:8 4.05 
2 *145:8 *145:16 22.81 
3 *145:16 *145:18 7.245 
4 *145:18 *734:B 32 
5 *145:18 *738:A2 31.075 
6 *145:16 *733:B 22.5285 
7 *145:8 *145:91 14.24 
8 *145:91 *693:B 21.765 
9 *145:91 *732:A 2.74 
*END

*D_NET *146 0.0200884
*CONN
*I *759:C I *D sky130_fd_sc_hd__and3_1
*I *691:D I *D sky130_fd_sc_hd__and4_1
*I *760:B1 I *D sky130_fd_sc_hd__a31o_1
*I *827:Q O *D sky130_fd_sc_hd__dfrtp_1
*CAP
1 *759:C 0.000442003
2 *691:D 0.000315184
3 *760:B1 0.00145202
4 *827:Q 0
5 *146:53 0.00463244
6 *146:4 0.00532727
7 *691:D *691:B 4.66108e-05
8 *691:D *715:A 8.40269e-05
9 *691:D *853:A 0.000446189
10 *691:D *147:16 0.00105793
11 *759:C *748:C 0.000457598
12 *759:C *759:A 0.000184991
13 *759:C *767:A 0.000629297
14 *759:C *151:14 0.000356508
15 *759:C *151:18 1.01945e-05
16 *760:B1 *760:A1 0.000568842
17 *760:B1 *771:B2 7.15931e-05
18 *760:B1 *774:A 5.14265e-05
19 *760:B1 *168:88 2.20014e-05
20 *146:53 *151:14 0.000118894
21 *146:53 *152:35 7.66738e-05
22 *687:C *760:B1 3.92502e-05
23 *730:A *760:B1 4.08514e-05
24 *731:A2 *760:B1 0
25 *731:B1_N *760:B1 9.20914e-05
26 *739:A_N *760:B1 0.000135141
27 *741:B *760:B1 8.23457e-05
28 *743:A *760:B1 0.000277791
29 *743:B *146:53 0.000253543
30 *761:A2 *146:53 4.83522e-05
31 *761:B1_N *760:B1 0.000420016
32 *767:C *759:C 5.54534e-05
33 *778:B *146:53 0
34 *785:A *691:D 8.40213e-05
35 *786:A *691:D 3.57349e-05
36 *827:D *146:53 5.89229e-05
37 *833:CLK *760:B1 2.11084e-05
38 *833:RESET_B *760:B1 0.000198777
39 *836:RESET_B *146:53 0
40 *838:CLK *760:B1 7.06865e-05
41 *840:CLK *759:C 2.69493e-05
42 *841:RESET_B *759:C 0.000370944
43 *82:20 *760:B1 0.000410845
44 *82:46 *760:B1 9.21178e-05
45 *95:37 *146:53 1.8935e-05
46 *96:12 *760:B1 0.00022645
47 *96:12 *146:53 5.98665e-05
48 *132:81 *146:53 0.000291504
49 *136:32 *759:C 0.000205465
50 *136:32 *146:53 0.000119583
*RES
1 *827:Q *146:4 1.6 
2 *146:4 *760:B1 37.89 
3 *146:4 *146:53 16.5269 
4 *146:53 *691:D 13.71 
5 *146:53 *759:C 18.495 
*END

*D_NET *147 0.0132418
*CONN
*I *691:C I *D sky130_fd_sc_hd__and4_1
*I *767:A I *D sky130_fd_sc_hd__and4_1
*I *762:B1 I *D sky130_fd_sc_hd__a21oi_1
*I *828:Q O *D sky130_fd_sc_hd__dfrtp_1
*CAP
1 *691:C 0
2 *767:A 0.000790505
3 *762:B1 0.00113981
4 *828:Q 0.000761033
5 *147:16 0.00281656
6 *147:14 0.00164727
7 *762:B1 *692:D 3.12157e-05
8 *762:B1 *715:A 1.99427e-05
9 *762:B1 *770:B 0.000316227
10 *762:B1 *148:22 0.000224161
11 *767:A *748:C 0.000158032
12 *767:A *749:A 0
13 *147:14 *691:B 2.49909e-05
14 *147:14 *853:A 0.000533774
15 *147:16 *691:B 1.91597e-05
16 *147:16 *715:A 3.83194e-05
17 seg[2] *147:14 0.000103563
18 *691:D *147:16 0.00105793
19 *704:B1 *762:B1 0.00013385
20 *715:B *762:B1 0.000345193
21 *717:A *147:14 0.000596578
22 *749:C *767:A 0
23 *759:C *767:A 0.000629297
24 *762:A2 *762:B1 3.66615e-05
25 *829:D *762:B1 9.51114e-05
26 *834:D *767:A 0
27 *836:D *762:B1 0.000204928
28 *840:CLK *767:A 0
29 *43:38 *767:A 0
30 *64:16 *147:14 0
31 *91:40 *762:B1 0.00106881
32 *91:40 *767:A 0.000149554
33 *128:115 *767:A 0
34 *132:56 *762:B1 4.69661e-05
35 *132:81 *762:B1 1.76057e-05
36 *136:32 *767:A 0.000234725
*RES
1 *828:Q *147:14 19.01 
2 *147:14 *147:16 11.145 
3 *147:16 *762:B1 22.9857 
4 *147:16 *767:A 20.795 
5 *147:14 *691:C 1.6 
*END

*D_NET *148 0.0175655
*CONN
*I *767:B I *D sky130_fd_sc_hd__and4_1
*I *692:B I *D sky130_fd_sc_hd__and4_1
*I *768:B I *D sky130_fd_sc_hd__and4_1
*I *770:B I *D sky130_fd_sc_hd__and4_1
*I *766:A I *D sky130_fd_sc_hd__xnor2_1
*I *829:Q O *D sky130_fd_sc_hd__dfrtp_2
*CAP
1 *767:B 0.000187681
2 *692:B 0
3 *768:B 0.00124582
4 *770:B 0.000442844
5 *766:A 2.26578e-05
6 *829:Q 0.000224319
7 *148:24 0.000494089
8 *148:22 0.00195389
9 *148:16 0.00103987
10 *148:10 0.000772385
11 *768:B *768:A 4.77769e-05
12 *768:B *774:A 9.54469e-05
13 *768:B *854:A 5.22524e-05
14 *768:B *152:35 0.000124857
15 *768:B *154:48 0.000475895
16 *768:B *163:24 7.93543e-05
17 *770:B *155:14 1.9488e-05
18 *770:B *167:16 0.000122074
19 *148:10 *748:B 0
20 *148:16 *748:B 0
21 *148:22 *755:A 0
22 *148:22 *779:A 0.000195336
23 *700:A *148:10 3.10303e-05
24 *715:B *770:B 0.000141477
25 *724:B *768:B 0.000727836
26 *727:B1 *768:B 0.00121587
27 *733:B *768:B 7.88143e-06
28 *752:A_N *148:10 0
29 *752:B *770:B 0.000122074
30 *757:A *768:B 0.000132941
31 *762:A2 *770:B 0.000453912
32 *762:B1 *770:B 0.000316227
33 *762:B1 *148:22 0.000224161
34 *766:B *766:A 4.77769e-05
35 *766:B *768:B 0.00019072
36 *766:B *148:24 0.000119873
37 *767:C *767:B 0.000382473
38 *768:C *768:B 2.49909e-05
39 *771:A1_N *768:B 0.000112534
40 *812:A *148:16 0.000307143
41 *818:CLK *766:A 4.8962e-05
42 *818:CLK *768:B 3.45123e-05
43 *818:CLK *148:24 6.33482e-05
44 *819:RESET_B *148:22 2.56388e-05
45 *825:RESET_B *148:16 4.11112e-05
46 *829:D *148:22 0.000269142
47 *829:RESET_B *148:10 0.000118271
48 *841:D *767:B 0.000303101
49 *843:A *768:B 1.88602e-05
50 *55:22 *768:B 0.000336068
51 *55:22 *148:22 0.000420952
52 *81:51 *767:B 0.000575339
53 *83:18 *770:B 2.78681e-05
54 *89:26 *768:B 0.00048681
55 *97:16 *768:B 0.00102246
56 *99:14 *768:B 0.000522693
57 *110:58 *148:10 1.05827e-05
58 *110:58 *148:16 0.000307209
59 *110:58 *148:22 0
60 *116:20 *148:16 4.43871e-06
61 *119:21 *768:B 0.000215032
62 *132:56 *770:B 3.69766e-05
63 *132:56 *148:22 3.05601e-05
64 *133:10 *768:B 0.000444089
65 *135:30 *766:A 1.32102e-05
66 *145:18 *768:B 3.32986e-05
*RES
1 *829:Q *148:10 6.81 
2 *148:10 *148:16 8.54 
3 *148:16 *148:22 19.15 
4 *148:22 *148:24 1.14 
5 *148:24 *766:A 2.395 
6 *148:24 *770:B 9.6894 
7 *148:22 *768:B 46.775 
8 *148:16 *692:B 1.6 
9 *148:10 *767:B 11.985 
*END

*D_NET *149 0.0201011
*CONN
*I *692:A I *D sky130_fd_sc_hd__and4_1
*I *770:A I *D sky130_fd_sc_hd__and4_1
*I *769:A1 I *D sky130_fd_sc_hd__o21ba_1
*I *768:A I *D sky130_fd_sc_hd__and4_1
*I *830:Q O *D sky130_fd_sc_hd__dfrtp_1
*CAP
1 *692:A 0.000674405
2 *770:A 3.9465e-05
3 *769:A1 0.00156917
4 *768:A 0.000643816
5 *830:Q 0
6 *149:24 0.00411108
7 *149:8 0.00210825
8 *149:6 0.000845092
9 *692:A *704:A1 0
10 *692:A *715:A 0.000130559
11 *692:A *779:B 0.000177723
12 *692:A *168:82 0.000238647
13 *692:A *172:18 3.23391e-05
14 *149:8 *168:82 9.12494e-06
15 *149:24 *734:A 0.000513312
16 *149:24 *737:A 0
17 *149:24 *155:14 0.000107207
18 *695:B *692:A 0.000833631
19 *695:B *149:8 0.000111036
20 *697:B *768:A 3.75018e-05
21 *705:B1 *149:8 0.000141632
22 *705:B1 *149:24 0.000459961
23 *709:A1 *770:A 1.06624e-05
24 *721:B *149:24 0.000657795
25 *724:B *768:A 9.0682e-05
26 *725:B1 *692:A 8.12462e-06
27 *738:A2 *769:A1 0.000382378
28 *740:A *149:24 0
29 *762:A2 *770:A 4.41506e-05
30 *768:B *768:A 4.77769e-05
31 *768:C *768:A 2.74775e-05
32 *768:D *768:A 4.11685e-05
33 *769:A2 *769:A1 4.97166e-05
34 *769:B1_N *769:A1 0.000761025
35 *780:B1 *149:24 0.000104583
36 *787:A *768:A 0.000505894
37 *813:D *770:A 0.000119242
38 *813:D *149:24 0.000435748
39 *815:RESET_B *769:A1 0.000316528
40 *817:RESET_B *768:A 3.66591e-05
41 *817:RESET_B *149:24 0.000261523
42 *818:D *149:24 0.000102302
43 *818:RESET_B *768:A 0.000273052
44 *818:RESET_B *769:A1 0.000186969
45 *831:D *149:24 0
46 *836:D *692:A 1.73877e-05
47 *836:D *149:8 0.000168944
48 *836:D *149:24 9.34171e-06
49 *836:RESET_B *692:A 1.93765e-05
50 *841:RESET_B *692:A 0.000597661
51 *18:20 *149:24 2.67348e-05
52 *89:26 *768:A 0.000674193
53 *89:26 *769:A1 0.00017968
54 *110:130 *768:A 0.000808057
55 *114:26 *149:24 1.07362e-05
56 *122:10 *768:A 0.000304613
57 *129:18 *768:A 3.69338e-05
*RES
1 *830:Q *149:6 3.6 
2 *149:6 *149:8 4.44 
3 *149:8 *149:24 11.1418 
4 *149:24 *768:A 24.5775 
5 *149:24 *769:A1 28.3575 
6 *149:8 *770:A 4.74 
7 *149:6 *692:A 21.315 
*END

*D_NET *150 0.014623
*CONN
*I *771:B2 I *D sky130_fd_sc_hd__o2bb2a_1
*I *692:D I *D sky130_fd_sc_hd__and4_1
*I *770:C I *D sky130_fd_sc_hd__and4_1
*I *831:Q O *D sky130_fd_sc_hd__dfrtp_1
*CAP
1 *771:B2 0.000870737
2 *692:D 0.000627035
3 *770:C 0.000346976
4 *831:Q 9.25022e-05
5 *150:10 0.00151997
6 *150:6 0.0015092
7 *692:D *704:A1 0.00108465
8 *770:C *738:A3 0.000225119
9 *770:C *165:48 8.97516e-05
10 *771:B2 *774:A 0.000268292
11 *150:10 *166:22 0.000168598
12 *687:C *771:B2 0.000376487
13 *695:A *770:C 1.57505e-05
14 *701:A *770:C 7.3696e-05
15 *704:A3 *770:C 0.00013921
16 *704:B1 *692:D 0.000293803
17 *704:B1 *150:10 0.00116525
18 *709:A1 *770:C 1.19928e-05
19 *709:A2 *770:C 0
20 *720:A *771:B2 0.000193801
21 *736:A *771:B2 0.000148555
22 *739:A_N *771:B2 6.12881e-05
23 *740:A *770:C 0.000489617
24 *760:B1 *771:B2 7.15931e-05
25 *762:B1 *692:D 3.12157e-05
26 *768:C *771:B2 1.52862e-05
27 *770:D *770:C 1.91597e-05
28 *771:A1_N *771:B2 3.19139e-05
29 *780:B1 *692:D 0.00123211
30 *812:A *692:D 0.000267335
31 *813:D *770:C 8.23457e-05
32 *817:D *770:C 1.38495e-05
33 *818:CLK *692:D 8.99419e-05
34 *818:D *692:D 8.78643e-05
35 *818:D *150:10 0.00160464
36 *831:D *771:B2 8.40213e-05
37 *831:RESET_B *771:B2 0.000405745
38 *831:RESET_B *150:6 0.000118081
39 *836:D *692:D 1.42565e-05
40 *841:RESET_B *692:D 0.000267335
41 *77:22 *770:C 1.88656e-05
42 *123:16 *770:C 3.80092e-05
43 *137:64 *150:10 0.000116516
44 *141:37 *771:B2 0.000139573
45 *143:90 *771:B2 0.000101052
*RES
1 *831:Q *150:6 2.74 
2 *150:6 *150:10 21.3575 
3 *150:10 *770:C 8.31297 
4 *150:10 *692:D 24.4575 
5 *150:6 *771:B2 23.03 
*END

*D_NET *151 0.0162219
*CONN
*I *772:B1 I *D sky130_fd_sc_hd__a21oi_1
*I *692:C I *D sky130_fd_sc_hd__and4_1
*I *832:Q O *D sky130_fd_sc_hd__dfrtp_1
*CAP
1 *772:B1 0.000802071
2 *692:C 0.000388924
3 *832:Q 0.0016352
4 *151:18 0.00141877
5 *151:14 0.00186298
6 *692:C *755:A 0.000653522
7 *692:C *168:26 0.000196516
8 *772:B1 *718:B1 0.000121547
9 *772:B1 *759:A 0.000185399
10 *151:14 *715:A 0.000293859
11 *151:18 *748:C 0.000105586
12 *151:18 *776:B 0.000101896
13 *151:18 *166:63 3.97985e-05
14 *702:C *772:B1 4.66826e-05
15 *713:B *772:B1 4.66108e-05
16 *713:C *772:B1 0.000110313
17 *714:A2 *151:14 0.000448804
18 *716:B1 *151:14 0.001216
19 *718:A1 *772:B1 2.05568e-05
20 *718:A2 *772:B1 4.80285e-05
21 *759:C *151:14 0.000356508
22 *759:C *151:18 1.01945e-05
23 *769:B1_N *151:14 0.00156299
24 *778:B *151:14 0.000125887
25 *785:A *151:18 2.53191e-06
26 *799:A *772:B1 0
27 *812:A *692:C 0.000228848
28 *813:RESET_B *151:14 0.000483306
29 *822:RESET_B *151:14 0.000109753
30 *824:D *151:14 1.08194e-05
31 *827:RESET_B *151:14 0.00142051
32 *840:CLK *151:18 0.000111149
33 *841:RESET_B *692:C 0.00131104
34 *841:RESET_B *772:B1 8.49205e-05
35 *841:RESET_B *151:18 0.000136567
36 *43:38 *151:14 7.14361e-05
37 *57:12 *151:18 0
38 *110:58 *692:C 2.59981e-05
39 *133:30 *151:18 0.000152586
40 *136:14 *151:14 1.16981e-05
41 *136:32 *151:14 0.000143239
42 *146:53 *151:14 0.000118894
*RES
1 *832:Q *151:14 49.1025 
2 *151:14 *151:18 8.0975 
3 *151:18 *692:C 18.5 
4 *151:18 *772:B1 14.98 
*END

*D_NET *152 0.0208028
*CONN
*I *776:B I *D sky130_fd_sc_hd__and3_1
*I *779:B I *D sky130_fd_sc_hd__and4_1
*I *775:A1 I *D sky130_fd_sc_hd__a21oi_1
*I *688:B I *D sky130_fd_sc_hd__and4_2
*I *774:A I *D sky130_fd_sc_hd__xor2_1
*I *833:Q O *D sky130_fd_sc_hd__dfrtp_2
*CAP
1 *776:B 7.88333e-05
2 *779:B 0.00186583
3 *775:A1 2.14552e-05
4 *688:B 0.000198578
5 *774:A 0.000627645
6 *833:Q 0
7 *152:67 0.00279243
8 *152:50 0.00146555
9 *152:35 0.00184183
10 *152:6 0.00167457
11 *688:B *688:C 1.08758e-05
12 *688:B *154:27 0.000121888
13 *774:A *760:A1 4.3584e-05
14 *776:B *166:63 1.7635e-05
15 *779:B *704:A1 0.000253012
16 *779:B *779:A 0.000646239
17 *779:B *166:63 7.48075e-05
18 *152:35 *154:27 0.000148949
19 *152:50 *688:A 0.000591603
20 *152:50 *738:B1 0.000399459
21 *152:50 *153:50 2.68526e-05
22 *152:50 *154:27 3.90951e-05
23 *152:50 *159:23 0
24 *152:67 *715:A 2.86014e-05
25 *152:67 *153:50 0.000543624
26 *152:67 *159:23 1.16534e-05
27 *152:67 *166:63 1.95991e-05
28 *687:B *774:A 8.21408e-05
29 *687:C *774:A 0
30 *692:A *779:B 0.000177723
31 *709:B1 *776:B 4.82919e-05
32 *713:A *152:67 1.05827e-05
33 *716:B1 *688:B 0.000122325
34 *716:B1 *152:50 3.62583e-06
35 *719:B *152:35 0
36 *722:B *774:A 0.000132252
37 *725:B1 *779:B 0
38 *756:B *774:A 3.63701e-06
39 *760:B1 *774:A 5.14265e-05
40 *768:B *774:A 9.54469e-05
41 *768:B *152:35 0.000124857
42 *771:B2 *774:A 0.000268292
43 *774:B *774:A 0
44 *775:A2 *152:67 4.77719e-05
45 *777:A *152:67 4.36954e-05
46 *779:D *779:B 4.30051e-05
47 *785:A *776:B 4.40073e-05
48 *810:A *152:35 0.000138965
49 *810:A *152:50 4.88568e-05
50 *823:D *774:A 0.000117265
51 *823:RESET_B *774:A 0.000197858
52 *824:D *152:50 0
53 *833:RESET_B *774:A 0.000113533
54 *836:RESET_B *779:B 0
55 *5:13 *779:B 0.0017756
56 *5:13 *152:67 0.000241737
57 *55:22 *152:50 0.000136884
58 *55:22 *152:67 0
59 *57:12 *152:67 4.85693e-05
60 *90:12 *152:67 0.000652384
61 *95:37 *152:35 0.000222553
62 *97:16 *774:A 9.54469e-05
63 *97:16 *152:35 0.000117014
64 *129:129 *152:67 0.000362191
65 *132:81 *152:67 0.000674712
66 *138:8 *152:50 0.000126367
67 *138:10 *152:35 4.81484e-06
68 *138:63 *152:50 5.26831e-05
69 *143:90 *774:A 0.000653548
70 *146:53 *152:35 7.66738e-05
71 *151:18 *776:B 0.000101896
*RES
1 *833:Q *152:6 3.6 
2 *152:6 *774:A 22.615 
3 *152:6 *152:35 5.93947 
4 *152:35 *688:B 6.12 
5 *152:35 *152:50 17.345 
6 *152:50 *775:A1 1.96 
7 *152:50 *152:67 24.0601 
8 *152:67 *779:B 19.379 
9 *152:67 *776:B 5.8025 
*END

*D_NET *153 0.0152236
*CONN
*I *775:B1 I *D sky130_fd_sc_hd__a21oi_1
*I *688:A I *D sky130_fd_sc_hd__and4_2
*I *776:A I *D sky130_fd_sc_hd__and3_1
*I *779:A I *D sky130_fd_sc_hd__and4_1
*I *834:Q O *D sky130_fd_sc_hd__dfrtp_1
*CAP
1 *775:B1 0
2 *688:A 0.000563858
3 *776:A 4.01227e-05
4 *779:A 0.000467604
5 *834:Q 0
6 *153:50 0.00118326
7 *153:33 0.00169623
8 *153:4 0.00150431
9 *688:A *738:B1 1.56428e-05
10 *688:A *154:27 0.000103187
11 *779:A *693:A 0.000348005
12 *779:A *749:A 0.00034633
13 *779:A *161:46 0.000305365
14 *153:33 *693:A 0.000104341
15 *153:33 *693:D 2.49909e-05
16 *153:33 *749:A 1.40839e-05
17 *153:33 *163:24 4.93879e-05
18 *153:50 *738:B1 8.34281e-06
19 *153:50 *159:23 0.00144062
20 *716:B1 *688:A 0.0010152
21 *749:B *779:A 3.07651e-05
22 *775:A2 *153:50 0.000122976
23 *779:B *779:A 0.000646239
24 *779:D *779:A 0.000234349
25 *780:B1 *779:A 0.000328968
26 *819:D *779:A 7.10084e-05
27 *819:RESET_B *779:A 0
28 *822:RESET_B *688:A 0.000147364
29 *824:D *688:A 0.000103019
30 *829:D *779:A 0.000146033
31 *834:D *153:33 1.19928e-05
32 *834:RESET_B *153:33 7.9576e-05
33 *837:RESET_B *688:A 4.66108e-05
34 *837:RESET_B *153:50 0.000233201
35 *43:38 *688:A 4.36573e-06
36 *55:22 *688:A 0.000180796
37 *57:12 *153:33 0.000328206
38 *68:20 *153:50 1.45569e-05
39 *77:37 *776:A 0.000119246
40 *77:37 *153:50 0.00014356
41 *90:12 *153:33 0.000328206
42 *110:58 *153:33 8.9731e-05
43 *116:20 *153:33 1.74629e-05
44 *128:115 *153:33 0.000559713
45 *132:81 *153:50 0.000501544
46 *140:30 *776:A 6.33103e-05
47 *140:30 *153:50 8.247e-05
48 *148:22 *779:A 0.000195336
49 *152:50 *688:A 0.000591603
50 *152:50 *153:50 2.68526e-05
51 *152:67 *153:50 0.000543624
*RES
1 *834:Q *153:4 1.6 
2 *153:4 *779:A 21.995 
3 *153:4 *153:33 23.855 
4 *153:33 *776:A 2.74 
5 *153:33 *153:50 25.36 
6 *153:50 *688:A 22.94 
7 *153:50 *775:B1 1.6 
*END

*D_NET *154 0.0176713
*CONN
*I *779:C I *D sky130_fd_sc_hd__and4_1
*I *688:C I *D sky130_fd_sc_hd__and4_2
*I *778:A I *D sky130_fd_sc_hd__xor2_1
*I *835:Q O *D sky130_fd_sc_hd__dfrtp_2
*CAP
1 *779:C 0.0011171
2 *688:C 2.34298e-05
3 *778:A 0.000303295
4 *835:Q 0.00067551
5 *154:48 0.00213895
6 *154:27 0.00131685
7 *154:8 0.00125038
8 *779:C *164:93 0.000715283
9 *154:48 *688:D 0.000377942
10 *154:48 *855:A 0.000441818
11 *688:A *154:27 0.000103187
12 *688:B *688:C 1.08758e-05
13 *688:B *154:27 0.000121888
14 *695:D *779:C 0.00147646
15 *697:B *154:48 0.00193354
16 *703:A *154:48 2.49909e-05
17 *704:B1 *154:48 7.15457e-05
18 *716:B1 *154:27 9.72473e-05
19 *734:B *154:48 0.000236044
20 *768:B *154:48 0.000475895
21 *769:B1_N *778:A 5.05716e-06
22 *771:A1_N *154:48 0.000119309
23 *779:D *779:C 2.68464e-05
24 *780:B1 *779:C 3.04704e-05
25 *819:D *779:C 9.97877e-05
26 *821:CLK *778:A 7.01093e-05
27 *822:RESET_B *778:A 3.24131e-05
28 *822:RESET_B *154:27 0.000135537
29 *827:CLK *154:8 4.70723e-05
30 *830:RESET_B *779:C 0.00180209
31 *832:RESET_B *778:A 0
32 *835:RESET_B *154:8 0.000116102
33 *78:12 *779:C 0.000671
34 *96:12 *154:8 6.62735e-05
35 *97:16 *154:48 0.000479916
36 *132:6 *154:48 0.000634422
37 *138:10 *154:27 4.69332e-05
38 *138:12 *778:A 9.77845e-05
39 *138:12 *154:27 3.05238e-05
40 *143:55 *154:48 5.93408e-05
41 *152:35 *154:27 0.000148949
42 *152:50 *154:27 3.90951e-05
*RES
1 *835:Q *154:8 11.295 
2 *154:8 *778:A 9.06 
3 *154:8 *154:27 9.335 
4 *154:27 *688:C 2.05 
5 *154:27 *154:48 38.07 
6 *154:48 *779:C 42.03 
*END

*D_NET *155 0.00957208
*CONN
*I *780:B2 I *D sky130_fd_sc_hd__o2bb2a_1
*I *688:D I *D sky130_fd_sc_hd__and4_2
*I *836:Q O *D sky130_fd_sc_hd__dfrtp_1
*CAP
1 *780:B2 0
2 *688:D 0.000833199
3 *836:Q 0.000924622
4 *155:14 0.00175782
5 *688:D *711:A 3.08152e-05
6 *688:D *158:20 0.000719
7 *155:14 *704:A1 0.000106377
8 *155:14 *158:20 0.000566204
9 *704:A2 *155:14 9.38026e-05
10 *711:B *688:D 6.76938e-05
11 *728:A *688:D 0.000119246
12 *743:B *688:D 0.000995292
13 *770:B *155:14 1.9488e-05
14 *780:B1 *155:14 0.000299169
15 *814:RESET_B *155:14 0.000276852
16 *815:RESET_B *688:D 0.000126765
17 *836:CLK *155:14 1.26248e-05
18 *836:D *155:14 5.83121e-06
19 *846:A *155:14 0.000204206
20 *129:68 *155:14 0.000163549
21 *132:6 *688:D 0.00012569
22 *132:12 *688:D 0.000320733
23 *132:31 *688:D 0.000654494
24 *132:56 *688:D 8.53113e-06
25 *132:56 *155:14 0.000251566
26 *135:22 *155:14 0.000401162
27 *139:85 *155:14 2.19562e-06
28 *149:24 *155:14 0.000107207
29 *154:48 *688:D 0.000377942
*RES
1 *836:Q *155:14 24.63 
2 *155:14 *688:D 28.17 
3 *155:14 *780:B2 3.6 
*END

*D_NET *156 0.0194393
*CONN
*I *693:A I *D sky130_fd_sc_hd__and4_2
*I *733:A I *D sky130_fd_sc_hd__nand2_1
*I *738:A1 I *D sky130_fd_sc_hd__a31o_1
*I *734:A I *D sky130_fd_sc_hd__or2_1
*I *818:Q O *D sky130_fd_sc_hd__dfrtp_2
*CAP
1 *693:A 0.000691774
2 *733:A 1.02819e-05
3 *738:A1 0.00233953
4 *734:A 0.00174475
5 *818:Q 0
6 *156:56 0.00132969
7 *156:18 0.00516002
8 *156:4 0.00170339
9 *693:A *693:D 0.00115666
10 *693:A *749:A 0.000623128
11 *734:A *694:C 0.000190829
12 *734:A *165:21 3.60024e-06
13 *734:A *165:48 1.00651e-05
14 *738:A1 *738:A3 9.5799e-06
15 *156:18 *163:24 1.7635e-05
16 *710:A2 *734:A 0
17 *721:B *734:A 0
18 *721:B *738:A1 0.000127645
19 *727:B1 *738:A1 0.000112736
20 *733:B *733:A 4.77757e-05
21 *750:A *156:18 1.12082e-05
22 *761:A1 *156:56 6.3124e-06
23 *764:A_N *738:A1 0
24 *771:A1_N *734:A 0.000352882
25 *771:A1_N *156:18 0.00104282
26 *772:A1 *156:18 0.000105958
27 *779:A *693:A 0.000348005
28 *812:A *693:A 0.000172848
29 *813:RESET_B *738:A1 5.16397e-05
30 *817:RESET_B *734:A 0.000120925
31 *818:RESET_B *156:18 4.77719e-05
32 *818:RESET_B *156:56 0.00021441
33 *822:RESET_B *738:A1 4.99279e-05
34 *824:D *738:A1 0
35 *824:RESET_B *693:A 0.000147768
36 *824:RESET_B *156:56 0.000634765
37 *834:D *693:A 0
38 *834:RESET_B *693:A 0
39 *846:A *733:A 4.77757e-05
40 *83:18 *156:18 7.53186e-05
41 *110:43 *156:18 1.02564e-05
42 *126:32 *693:A 0
43 *126:32 *156:56 0
44 *133:30 *693:A 0.000102013
45 *149:24 *734:A 0.000513312
46 *153:33 *693:A 0.000104341
*RES
1 *818:Q *156:4 1.6 
2 *156:4 *156:18 5.99923 
3 *156:18 *734:A 10.0776 
4 *156:18 *738:A1 8.51217 
5 *156:4 *156:56 12.62 
6 *156:56 *733:A 4.05 
7 *156:56 *693:A 23.385 
*END

*D_NET *157 0.0101776
*CONN
*I *689:A I *D sky130_fd_sc_hd__and2_1
*I *711:A I *D sky130_fd_sc_hd__and3_1
*I *710:B1 I *D sky130_fd_sc_hd__a21oi_1
*I *837:Q O *D sky130_fd_sc_hd__dfrtp_1
*CAP
1 *689:A 0.000238025
2 *711:A 0.000516926
3 *710:B1 0.000882854
4 *837:Q 3.69588e-05
5 *157:14 0.00191683
6 *157:8 0.000792031
7 *689:A *158:20 0.000408216
8 *710:B1 *855:A 7.30547e-05
9 *688:D *711:A 3.08152e-05
10 *705:B1 *710:B1 4.13171e-05
11 *709:A1 *689:A 0.000297479
12 *709:A1 *157:14 0.00017649
13 *710:A1 *710:B1 1.77665e-05
14 *711:B *711:A 0.000137059
15 *711:C *711:A 4.66108e-05
16 *712:A *710:B1 0.000122797
17 *728:A *157:14 0.000889578
18 *736:A *157:14 9.40179e-05
19 *756:A_N *711:A 0.000265979
20 *774:B *711:A 1.23268e-05
21 *817:CLK *689:A 8.23457e-05
22 *831:CLK *710:B1 5.46728e-05
23 *831:RESET_B *710:B1 0.000278974
24 *831:RESET_B *157:14 0.000117811
25 *833:D *711:A 0.000685723
26 *837:RESET_B *157:8 4.66108e-05
27 *18:20 *711:A 0.000189253
28 *80:14 *157:14 9.99887e-05
29 *82:20 *711:A 7.37129e-05
30 *82:98 *157:14 1.1561e-05
31 *89:26 *689:A 3.64998e-06
32 *99:14 *689:A 0.000137996
33 *110:16 *689:A 0.000304722
34 *110:16 *157:14 0.000111966
35 *129:68 *711:A 0.000132872
36 *131:20 *711:A 4.77807e-05
37 *132:12 *711:A 0.000153439
38 *137:8 *710:B1 1.91597e-05
39 *137:10 *710:B1 7.18183e-05
40 *141:37 *157:14 0.000556429
*RES
1 *837:Q *157:8 4.05 
2 *157:8 *157:14 17.03 
3 *157:14 *710:B1 18.11 
4 *157:14 *711:A 20.945 
5 *157:8 *689:A 11.175 
*END

*D_NET *158 0.0115204
*CONN
*I *714:A1 I *D sky130_fd_sc_hd__o21ba_1
*I *689:B I *D sky130_fd_sc_hd__and2_1
*I *838:Q O *D sky130_fd_sc_hd__dfrtp_1
*CAP
1 *714:A1 0.000476304
2 *689:B 2.21004e-05
3 *838:Q 0.00153148
4 *158:20 0.00202989
5 *158:20 *165:10 6.30609e-05
6 *688:D *158:20 0.000719
7 *689:A *158:20 0.000408216
8 *708:A *158:20 0.000276655
9 *714:A2 *714:A1 0.000288635
10 *721:B *158:20 0.000114662
11 *725:C1 *158:20 0.00033685
12 *728:A *158:20 8.73317e-05
13 *731:A2 *158:20 0.000163277
14 *737:B *158:20 0.000854245
15 *743:A *158:20 7.00225e-05
16 *745:B *158:20 0.000518303
17 *801:A *158:20 0.000770259
18 *814:CLK *714:A1 0.000119246
19 *815:RESET_B *158:20 0.000340957
20 *817:CLK *158:20 5.74791e-05
21 *820:RESET_B *714:A1 8.84407e-05
22 *824:RESET_B *714:A1 0.000155601
23 *834:D *714:A1 0.000508641
24 *89:26 *714:A1 1.48096e-05
25 *89:26 *158:20 1.74678e-05
26 *126:32 *714:A1 4.9367e-05
27 *129:102 *714:A1 4.66108e-05
28 *129:109 *714:A1 0.000158543
29 *132:56 *158:20 0.000498678
30 *133:10 *714:A1 8.40269e-05
31 *133:10 *158:20 8.40213e-05
32 *136:32 *714:A1 0
33 *155:14 *158:20 0.000566204
*RES
1 *838:Q *158:20 48.285 
2 *158:20 *689:B 1.96 
3 *158:20 *714:A1 21.375 
*END

*D_NET *159 0.0198003
*CONN
*I *690:A I *D sky130_fd_sc_hd__and4_2
*I *715:A I *D sky130_fd_sc_hd__and3_1
*I *716:B2 I *D sky130_fd_sc_hd__o2bb2a_1
*I *839:Q O *D sky130_fd_sc_hd__dfrtp_1
*CAP
1 *690:A 0.000700489
2 *715:A 0.00113623
3 *716:B2 0.000725655
4 *839:Q 0.000566597
5 *159:23 0.00286099
6 *159:10 0.00231652
7 *715:A *853:A 0.00165208
8 *715:A *166:63 5.08401e-05
9 *159:23 *738:B1 0
10 *691:D *715:A 8.40269e-05
11 *692:A *715:A 0.000130559
12 *695:B *715:A 0.000132233
13 *715:C *715:A 0.000136021
14 *716:A1_N *716:B2 7.95174e-06
15 *716:B1 *716:B2 6.156e-05
16 *717:B *690:A 3.79595e-05
17 *719:A *159:10 0.000285984
18 *719:A *159:23 0.000492996
19 *719:B *159:23 0.000229339
20 *732:A *715:A 0.000121023
21 *762:B1 *715:A 1.99427e-05
22 *772:A1 *690:A 0
23 *777:A *159:23 0.000245893
24 *810:A *716:B2 9.70505e-05
25 *810:A *159:10 0.000234764
26 *824:D *715:A 0.000116635
27 *824:D *159:10 0.000156652
28 *824:D *159:23 0.000232467
29 *825:RESET_B *715:A 5.88334e-05
30 *828:RESET_B *690:A 3.96263e-05
31 *830:D *159:23 0.000745962
32 *830:RESET_B *715:A 0.000466245
33 *836:RESET_B *690:A 0.000511847
34 *836:RESET_B *715:A 0.000220834
35 *839:CLK *159:10 4.2506e-05
36 *839:D *159:10 5.83121e-06
37 *5:13 *690:A 0
38 *5:13 *715:A 0
39 *29:18 *715:A 0.000372972
40 *43:38 *715:A 7.06865e-05
41 *68:20 *716:B2 0.000165831
42 *68:20 *159:23 0.000565057
43 *91:40 *715:A 0.00158346
44 *128:43 *716:B2 1.19928e-05
45 *128:54 *716:B2 1.56428e-05
46 *141:14 *159:23 8.14335e-05
47 *145:91 *715:A 0.000196045
48 *147:16 *715:A 3.83194e-05
49 *151:14 *715:A 0.000293859
50 *152:50 *159:23 0
51 *152:67 *715:A 2.86014e-05
52 *152:67 *159:23 1.16534e-05
53 *153:50 *159:23 0.00144062
*RES
1 *839:Q *159:10 12.645 
2 *159:10 *716:B2 11.985 
3 *159:10 *159:23 31.8425 
4 *159:23 *715:A 37.9764 
5 *159:23 *690:A 6.14043 
*END

*D_NET *160 0.00386099
*CONN
*I *718:B1 I *D sky130_fd_sc_hd__a21o_1
*I *690:B I *D sky130_fd_sc_hd__and4_2
*I *840:Q O *D sky130_fd_sc_hd__dfrtp_1
*CAP
1 *718:B1 0.000215889
2 *690:B 0.00040544
3 *840:Q 3.69588e-05
4 *160:8 0.000658287
5 *690:C *690:B 0.000138718
6 *690:C *160:8 4.66108e-05
7 *706:A *690:B 4.66108e-05
8 *709:B1 *690:B 0.000912865
9 *713:A *718:B1 0.000143796
10 *713:B *718:B1 9.14049e-05
11 *713:C *718:B1 9.50333e-05
12 *717:B *690:B 1.34503e-05
13 *719:B *718:B1 0.000101789
14 *772:B1 *718:B1 0.000121547
15 *773:B *690:B 0.000210757
16 *825:CLK *718:B1 2.31111e-05
17 *68:20 *690:B 9.14049e-05
18 *68:20 *718:B1 9.31861e-05
19 *77:37 *690:B 3.68828e-05
20 *77:58 *690:B 2.17931e-05
21 *82:141 *690:B 4.41506e-05
22 *82:154 *690:B 2.49909e-05
23 *132:81 *690:B 5.13155e-05
24 *132:81 *718:B1 1.1561e-05
25 *134:6 *690:B 2.81365e-05
26 *140:30 *690:B 0.000121027
27 *140:71 *718:B1 7.42725e-05
*RES
1 *840:Q *160:8 4.05 
2 *160:8 *690:B 15.105 
3 *160:8 *718:B1 9.795 
*END

*D_NET *161 0.0139032
*CONN
*I *696:A I *D sky130_fd_sc_hd__and4_1
*I *721:A I *D sky130_fd_sc_hd__xnor2_1
*I *704:A1 I *D sky130_fd_sc_hd__a31o_1
*I *702:D I *D sky130_fd_sc_hd__nand4b_2
*I *706:B I *D sky130_fd_sc_hd__and4_1
*I *841:Q O *D sky130_fd_sc_hd__dfrtp_2
*CAP
1 *696:A 0.000248911
2 *721:A 2.43388e-05
3 *704:A1 0.00077639
4 *702:D 0
5 *706:B 0.000189248
6 *841:Q 5.67562e-05
7 *161:67 0.00041584
8 *161:46 0.00275919
9 *161:21 0.00200381
10 *161:8 0.000409598
11 *696:A *165:77 0.000354719
12 *696:A *170:16 0.000354719
13 *704:A1 *168:82 8.247e-05
14 *161:21 *168:16 0.000135896
15 *161:21 *168:52 0.000113287
16 *161:46 *749:A 4.76479e-05
17 *161:46 *168:16 0.000116151
18 *690:C *161:8 0.000153816
19 *690:D *161:8 8.73389e-06
20 *692:A *704:A1 0
21 *692:D *704:A1 0.00108465
22 *696:C *696:A 0
23 *700:A *161:21 3.26653e-05
24 *700:B *161:67 2.8218e-05
25 *704:A2 *704:A1 0.000242109
26 *707:A *706:B 0.000196405
27 *707:A *161:8 6.33103e-05
28 *707:A *161:21 3.09233e-05
29 *721:B *161:67 1.12156e-05
30 *725:B1 *161:67 0
31 *749:B *161:46 4.87689e-05
32 *749:C *161:46 1.83194e-05
33 *752:B *696:A 0
34 *779:A *161:46 0.000305365
35 *779:B *704:A1 0.000253012
36 *780:B1 *704:A1 6.79583e-05
37 *780:B1 *161:67 4.10469e-05
38 *816:RESET_B *161:21 8.60912e-05
39 *818:CLK *704:A1 3.112e-05
40 *825:D *161:46 3.20961e-05
41 *825:RESET_B *161:46 0.00170398
42 *829:CLK *696:A 6.05989e-05
43 *829:CLK *161:67 4.9655e-05
44 *836:D *704:A1 0.000386895
45 *836:RESET_B *704:A1 5.05066e-06
46 *5:13 *706:B 0.00019936
47 *5:13 *161:21 5.5391e-05
48 *77:58 *706:B 0.000153816
49 *81:51 *721:A 2.69217e-05
50 *109:14 *161:46 0.000310169
51 *121:12 *161:21 0
52 *121:12 *161:46 0
53 *135:30 *704:A1 2.0187e-05
54 *155:14 *704:A1 0.000106377
*RES
1 *841:Q *161:8 5.085 
2 *161:8 *706:B 7.485 
3 *161:8 *161:21 4.695 
4 *161:21 *702:D 3.6 
5 *161:21 *161:46 31.015 
6 *161:46 *704:A1 26.68 
7 *161:46 *161:67 2.91 
8 *161:67 *721:A 4.05 
9 *161:67 *696:A 10.485 
*END

*D_NET *162 0.025321
*CONN
*I *738:A3 I *D sky130_fd_sc_hd__a31o_1
*I *737:A I *D sky130_fd_sc_hd__xnor2_1
*I *693:C I *D sky130_fd_sc_hd__and4_2
*I *819:Q O *D sky130_fd_sc_hd__dfrtp_2
*CAP
1 *738:A3 0.0024643
2 *737:A 0.00300135
3 *693:C 0.000337012
4 *819:Q 0.000686273
5 *162:29 0.00665987
6 *162:12 0.00221751
7 *693:C *165:48 4.00045e-05
8 *693:C *165:77 3.23949e-05
9 *737:A *855:A 0.000109931
10 *700:B *737:A 0.000991367
11 *700:B *162:29 0.00138109
12 *701:A *737:A 0.000723094
13 *717:A *738:A3 0
14 *717:B *738:A3 0.00101889
15 *721:B *737:A 0
16 *721:B *162:29 0
17 *727:B1 *737:A 0.000104111
18 *730:A *737:A 0.000118136
19 *731:B1_N *737:A 4.06969e-05
20 *733:B *738:A3 0.000129905
21 *738:A1 *738:A3 9.5799e-06
22 *740:A *738:A3 0.000654735
23 *760:A3 *737:A 3.18705e-05
24 *761:B1_N *737:A 2.23342e-05
25 *764:A_N *738:A3 0.000405797
26 *770:C *738:A3 0.000225119
27 *772:A1 *738:A3 0
28 *817:RESET_B *737:A 0
29 *819:RESET_B *693:C 0.000160054
30 *819:RESET_B *162:12 0.000257211
31 *825:RESET_B *162:12 0.000269992
32 *828:RESET_B *738:A3 0.000198219
33 *843:A *737:A 0
34 *5:13 *693:C 9.95261e-05
35 *5:13 *162:12 9.40207e-05
36 *77:86 *693:C 2.79398e-05
37 *83:18 *738:A3 0.00165044
38 *109:14 *162:12 0.000271666
39 *114:26 *737:A 0
40 *123:16 *738:A3 0.000209419
41 *134:31 *162:12 0.000666038
42 *144:18 *738:A3 1.1071e-05
43 *149:24 *737:A 0
*RES
1 *819:Q *162:12 8.97457 
2 *162:12 *693:C 5.4923 
3 *162:12 *162:29 3.20813 
4 *162:29 *737:A 10.5912 
5 *162:29 *738:A3 21.7723 
*END

*D_NET *163 0.0121446
*CONN
*I *738:B1 I *D sky130_fd_sc_hd__a31o_1
*I *693:D I *D sky130_fd_sc_hd__and4_2
*I *820:Q O *D sky130_fd_sc_hd__dfrtp_1
*CAP
1 *738:B1 0.000988211
2 *693:D 0.000606302
3 *820:Q 0
4 *163:24 0.00176718
5 *163:4 0.00214909
6 *693:D *749:A 5.33414e-05
7 *163:24 *854:A 0.000102838
8 *163:24 *166:63 0.000131365
9 *688:A *738:B1 1.56428e-05
10 *693:A *693:D 0.00115666
11 *707:A *163:24 0.000121643
12 *717:B *738:B1 6.27281e-05
13 *723:A *738:B1 3.71882e-05
14 *733:B *163:24 0.000377646
15 *739:B *738:B1 0.000484352
16 *750:A *163:24 7.1443e-05
17 *756:A_N *163:24 1.97442e-05
18 *768:B *163:24 7.93543e-05
19 *777:A *738:B1 0.000114684
20 *820:RESET_B *163:24 0.000130078
21 *825:RESET_B *163:24 0.000106174
22 *834:D *163:24 2.14773e-05
23 *837:RESET_B *738:B1 4.36694e-05
24 *837:RESET_B *163:24 0.000125788
25 *846:A *163:24 6.83447e-05
26 *92:14 *738:B1 0.00012079
27 *99:14 *163:24 0.000983291
28 *110:43 *163:24 0.000223518
29 *110:58 *163:24 0.000357567
30 *116:20 *163:24 0.000348124
31 *129:102 *163:24 0.000265276
32 *141:14 *738:B1 9.85357e-05
33 *141:71 *738:B1 0.000211827
34 *142:130 *163:24 8.80293e-06
35 *142:136 *163:24 0.000192125
36 *152:50 *738:B1 0.000399459
37 *153:33 *693:D 2.49909e-05
38 *153:33 *163:24 4.93879e-05
39 *153:50 *738:B1 8.34281e-06
40 *156:18 *163:24 1.7635e-05
41 *159:23 *738:B1 0
*RES
1 *820:Q *163:4 1.6 
2 *163:4 *163:24 38.915 
3 *163:24 *693:D 13.78 
4 *163:4 *738:B1 24.845 
*END

*D_NET *164 0.0241226
*CONN
*I *749:A I *D sky130_fd_sc_hd__and3_1
*I *744:B I *D sky130_fd_sc_hd__and3_2
*I *742:A I *D sky130_fd_sc_hd__nor2_1
*I *694:B I *D sky130_fd_sc_hd__and4_1
*I *741:A I *D sky130_fd_sc_hd__and2_1
*I *821:Q O *D sky130_fd_sc_hd__dfrtp_2
*CAP
1 *749:A 0.0017964
2 *744:B 0
3 *742:A 0.000383705
4 *694:B 0
5 *741:A 1.87513e-05
6 *821:Q 0.00267175
7 *164:93 0.00247168
8 *164:87 0.00161345
9 *164:51 0.000407536
10 *164:47 0.00106196
11 *164:34 0.00036771
12 *164:30 0.00292075
13 *742:A *694:C 1.08758e-05
14 *749:A *744:A 3.77634e-05
15 *749:A *168:26 3.67779e-05
16 *164:30 *694:D 2.03321e-05
17 *164:30 *165:10 0.000858484
18 *164:34 *694:D 0.000379174
19 *164:34 *165:10 0
20 *164:47 *694:D 0.000108322
21 *164:47 *165:10 0
22 *164:87 *694:C 4.9968e-05
23 *164:87 *165:10 0
24 *693:A *749:A 0.000623128
25 *693:D *749:A 5.33414e-05
26 *695:D *164:87 8.23457e-05
27 *695:D *164:93 3.09164e-05
28 *698:A2 *164:47 8.27745e-06
29 *698:A2 *164:87 4.36573e-06
30 *705:A3 *164:87 8.40213e-05
31 *705:B1 *741:A 4.8854e-05
32 *719:A *164:30 0.00047339
33 *720:A *164:30 0.00044734
34 *741:B *164:34 0
35 *742:B *742:A 8.23457e-05
36 *749:B *164:93 0
37 *749:C *749:A 8.53113e-06
38 *767:A *749:A 0
39 *767:C *749:A 4.04619e-05
40 *779:A *749:A 0.00034633
41 *779:C *164:93 0.000715283
42 *789:A *742:A 4.87405e-05
43 *812:A *749:A 0
44 *815:D *741:A 8.52883e-05
45 *822:RESET_B *164:30 0.000225807
46 *825:RESET_B *749:A 4.77757e-05
47 *834:D *749:A 2.75229e-05
48 *834:RESET_B *749:A 2.32277e-05
49 *837:D *164:87 0.00077256
50 *838:CLK *164:30 8.75985e-06
51 *838:RESET_B *164:30 8.91225e-05
52 *31:20 *164:87 0.00117164
53 *47:12 *742:A 0.000200342
54 *47:12 *164:87 0.000412761
55 *75:8 *749:A 6.42257e-06
56 *75:25 *164:93 0.000554764
57 *95:8 *164:30 0.000237713
58 *106:26 *164:87 0.000426575
59 *142:45 *164:47 1.29415e-05
60 *142:45 *164:87 4.38721e-06
61 *143:34 *164:87 0.000481747
62 *145:16 *164:87 0.000181376
63 *145:91 *164:87 0.000402743
64 *145:91 *164:93 0.000374302
65 *153:33 *749:A 1.40839e-05
66 *161:46 *749:A 4.76479e-05
*RES
1 *821:Q *164:30 49.525 
2 *164:30 *164:34 5.235 
3 *164:34 *741:A 4.395 
4 *164:34 *164:47 2.2125 
5 *164:47 *164:51 2.4875 
6 *164:51 *694:B 1.6 
7 *164:51 *742:A 6.91 
8 *164:47 *164:87 36.0275 
9 *164:87 *164:93 20.36 
10 *164:93 *744:B 1.6 
11 *164:93 *749:A 28.64 
*END

*D_NET *165 0.0221818
*CONN
*I *748:A I *D sky130_fd_sc_hd__and3_1
*I *744:A I *D sky130_fd_sc_hd__and3_2
*I *745:A I *D sky130_fd_sc_hd__nor2_1
*I *694:A I *D sky130_fd_sc_hd__and4_1
*I *822:Q O *D sky130_fd_sc_hd__dfrtp_2
*CAP
1 *748:A 0.000160792
2 *744:A 4.28747e-05
3 *745:A 0
4 *694:A 4.85941e-05
5 *822:Q 0.000633445
6 *165:77 0.00305489
7 *165:48 0.0054338
8 *165:21 0.0026548
9 *165:10 0.000840009
10 *748:A *748:B 4.40742e-05
11 *748:A *748:C 0.000167521
12 *165:21 *694:C 0
13 *165:48 *694:C 0.000192276
14 *165:77 *851:A 0.000995276
15 *165:77 *170:16 0.000285835
16 *693:C *165:48 4.00045e-05
17 *693:C *165:77 3.23949e-05
18 *696:A *165:77 0.000354719
19 *696:D *165:77 0.000468982
20 *700:A *165:77 8.33066e-06
21 *700:B *165:48 0.000153084
22 *701:A *165:48 0.000134478
23 *704:A3 *165:48 0.000770909
24 *731:A2 *165:10 0.000122002
25 *734:A *165:21 3.60024e-06
26 *734:A *165:48 1.00651e-05
27 *737:B *165:48 0.00115838
28 *740:A *165:48 3.30156e-05
29 *741:B *165:10 0.0002188
30 *743:A *165:10 7.4027e-05
31 *745:B *165:10 0.000255433
32 *745:B *165:21 0.000303573
33 *745:B *165:48 9.12494e-06
34 *749:A *744:A 3.77634e-05
35 *749:C *748:A 0.000385429
36 *752:B *165:48 3.56097e-05
37 *752:B *165:77 0.00015896
38 *753:A *165:77 0.000219059
39 *770:C *165:48 8.97516e-05
40 *799:A *748:A 0.000160338
41 *817:D *165:48 0.000113104
42 *819:RESET_B *165:48 1.48965e-05
43 *822:CLK *165:10 4.66742e-05
44 *822:D *165:10 2.75145e-05
45 *822:RESET_B *165:10 6.03947e-05
46 *831:D *165:21 3.39228e-05
47 *838:RESET_B *165:10 0.000542984
48 *5:13 *165:48 1.87327e-05
49 *47:12 *694:A 3.29947e-05
50 *75:8 *744:A 8.65244e-05
51 *77:14 *165:48 7.67859e-05
52 *77:22 *165:48 0.000135817
53 *77:86 *165:77 0.000277864
54 *158:20 *165:10 6.30609e-05
55 *164:30 *165:10 0.000858484
56 *164:34 *165:10 0
57 *164:47 *165:10 0
58 *164:87 *165:10 0
*RES
1 *822:Q *165:10 21.135 
2 *165:10 *694:A 4.395 
3 *165:10 *165:21 3.675 
4 *165:21 *745:A 3.6 
5 *165:21 *165:48 23.5724 
6 *165:48 *744:A 4.74 
7 *165:48 *165:77 49.485 
8 *165:77 *748:A 7.15 
*END

*D_NET *166 0.0275287
*CONN
*I *694:D I *D sky130_fd_sc_hd__and4_1
*I *747:A I *D sky130_fd_sc_hd__xor2_1
*I *748:C I *D sky130_fd_sc_hd__and3_1
*I *751:A1 I *D sky130_fd_sc_hd__a21o_1
*I *823:Q O *D sky130_fd_sc_hd__dfrtp_4
*CAP
1 *694:D 0.000615429
2 *747:A 0.00191993
3 *748:C 0.0013637
4 *751:A1 3.38751e-05
5 *823:Q 1.5611e-05
6 *166:63 0.00317324
7 *166:22 0.00283228
8 *166:14 0.00356985
9 *166:8 0.00129209
10 *166:22 *855:A 0.00050809
11 *700:A *748:C 0.000317833
12 *704:B1 *166:22 0.00040698
13 *704:B1 *166:63 0.000220452
14 *705:B1 *166:22 0
15 *707:A *166:63 0.000590298
16 *712:A *694:D 0.000553739
17 *715:A *166:63 5.08401e-05
18 *724:A *747:A 4.97729e-05
19 *725:C1 *166:63 8.60913e-05
20 *729:B *166:63 0.000118081
21 *730:A *166:63 0.000523653
22 *731:A2 *694:D 0
23 *731:A2 *166:8 8.52845e-05
24 *731:A2 *166:14 0
25 *731:A2 *166:22 0.000250979
26 *731:B1_N *166:8 8.52845e-05
27 *731:B1_N *166:22 0
28 *746:B *694:D 0
29 *747:B *694:D 0
30 *747:B *747:A 4.63995e-05
31 *748:A *748:C 0.000167521
32 *749:C *748:C 0
33 *750:A *166:63 4.77757e-05
34 *751:A2 *751:A1 4.82863e-05
35 *758:B *747:A 0
36 *759:C *748:C 0.000457598
37 *760:A3 *694:D 1.83114e-05
38 *760:A3 *747:A 7.11785e-06
39 *761:A1 *166:63 4.38293e-05
40 *761:B1_N *166:22 0.000367408
41 *767:A *748:C 0.000158032
42 *776:B *166:63 1.7635e-05
43 *779:B *166:63 7.48075e-05
44 *785:A *166:63 0.000420184
45 *794:A *747:A 0.000498025
46 *799:A *748:C 0.000607645
47 *813:D *166:22 9.29671e-05
48 *813:D *166:63 5.36944e-05
49 *820:CLK *166:63 7.94658e-05
50 *820:D *166:63 2.75145e-05
51 *822:RESET_B *166:63 0.000181376
52 *823:CLK *166:22 0.000703422
53 *823:D *747:A 0.000205695
54 *824:D *166:63 0.000540732
55 *829:RESET_B *748:C 0.00023422
56 *836:D *166:63 0.000116158
57 *836:RESET_B *166:63 6.68625e-06
58 *837:RESET_B *166:63 0.000198388
59 *840:CLK *748:C 5.8678e-05
60 *18:20 *166:22 0
61 *33:16 *694:D 0
62 *43:38 *166:63 0.000354194
63 *55:22 *166:63 0.000714749
64 *57:12 *748:C 0
65 *57:12 *166:63 0.000179233
66 *81:51 *748:C 2.42881e-05
67 *95:37 *166:22 1.1071e-05
68 *110:98 *748:C 7.96104e-06
69 *110:126 *166:63 2.01504e-05
70 *110:143 *747:A 4.04006e-05
71 *133:30 *748:C 0.00015426
72 *137:64 *166:22 0.000249739
73 *137:66 *166:22 0.000184318
74 *137:70 *166:22 0.000151031
75 *142:45 *694:D 8.30853e-06
76 *142:75 *747:A 0.000148019
77 *142:75 *166:14 0.000165215
78 *150:10 *166:22 0.000168598
79 *151:18 *748:C 0.000105586
80 *151:18 *166:63 3.97985e-05
81 *152:67 *166:63 1.95991e-05
82 *163:24 *166:63 0.000131365
83 *164:30 *694:D 2.03321e-05
84 *164:34 *694:D 0.000379174
85 *164:47 *694:D 0.000108322
*RES
1 *823:Q *166:8 4.395 
2 *166:8 *166:14 2.38757 
3 *166:14 *166:22 27.2975 
4 *166:22 *751:A1 4.05 
5 *166:22 *166:63 48.7436 
6 *166:63 *748:C 30.5175 
7 *166:14 *747:A 11.7792 
8 *166:8 *694:D 16.965 
*END

*D_NET *167 0.0185002
*CONN
*I *748:B I *D sky130_fd_sc_hd__and3_1
*I *751:B1 I *D sky130_fd_sc_hd__a21o_1
*I *694:C I *D sky130_fd_sc_hd__and4_1
*I *824:Q O *D sky130_fd_sc_hd__dfrtp_1
*CAP
1 *748:B 0.00217993
2 *751:B1 4.25668e-05
3 *694:C 0.000848499
4 *824:Q 0
5 *167:16 0.00245257
6 *167:4 0.00374143
7 *700:A *748:B 0.000195396
8 *701:A *167:16 0.000136898
9 *704:A3 *694:C 0.000116158
10 *705:B1 *167:16 8.04254e-06
11 *709:B1 *748:B 4.21973e-05
12 *709:B1 *167:16 0.000653478
13 *725:B1 *167:16 0.00047979
14 *725:C1 *167:16 9.44681e-05
15 *734:A *694:C 0.000190829
16 *734:B *694:C 0.000153685
17 *735:B *167:16 0.000353553
18 *742:A *694:C 1.08758e-05
19 *748:A *748:B 4.40742e-05
20 *749:C *748:B 0.00195945
21 *751:A2 *694:C 0.00026476
22 *751:A2 *751:B1 0.00014356
23 *752:B *167:16 0.000893036
24 *753:A *748:B 0.000171978
25 *767:C *748:B 0
26 *770:B *167:16 0.000122074
27 *796:A *167:16 0.000309729
28 *812:A *748:B 0.000168403
29 *817:RESET_B *694:C 0
30 *825:RESET_B *748:B 1.44259e-05
31 *831:D *694:C 5.74866e-05
32 *837:CLK *167:16 0.000180675
33 *47:12 *694:C 9.86965e-05
34 *75:56 *167:16 0.000579616
35 *109:14 *748:B 0.000574798
36 *123:16 *167:16 3.72952e-05
37 *133:30 *748:B 0.000178227
38 *142:45 *694:C 0.000341861
39 *144:87 *694:C 0.000263595
40 *144:87 *751:B1 0.000153816
41 *148:10 *748:B 0
42 *148:16 *748:B 0
43 *164:87 *694:C 4.9968e-05
44 *165:21 *694:C 0
45 *165:48 *694:C 0.000192276
*RES
1 *824:Q *167:4 1.6 
2 *167:4 *167:16 36.625 
3 *167:16 *694:C 23.87 
4 *167:16 *751:B1 3.085 
5 *167:4 *748:B 40.58 
*END

*D_NET *168 0.0269134
*CONN
*I *691:B I *D sky130_fd_sc_hd__and4_1
*I *754:A I *D sky130_fd_sc_hd__nor2_1
*I *760:A2 I *D sky130_fd_sc_hd__a31o_1
*I *759:B I *D sky130_fd_sc_hd__and3_1
*I *755:A I *D sky130_fd_sc_hd__nand2_1
*I *825:Q O *D sky130_fd_sc_hd__dfrtp_4
*CAP
1 *691:B 4.12164e-05
2 *754:A 0
3 *760:A2 0
4 *759:B 0
5 *755:A 0.000734393
6 *825:Q 0.00050964
7 *168:88 0.00138043
8 *168:82 0.0028341
9 *168:60 0.00244401
10 *168:52 0.00128769
11 *168:26 0.0018499
12 *168:16 0.00188129
13 *691:B *853:A 0.000118081
14 *168:82 *172:18 5.16348e-05
15 *168:88 *760:A1 4.89295e-05
16 *690:D *168:26 0.000153816
17 *691:D *691:B 4.66108e-05
18 *692:A *168:82 0.000238647
19 *692:C *755:A 0.000653522
20 *692:C *168:26 0.000196516
21 *700:A *168:16 0.000133657
22 *704:A1 *168:82 8.247e-05
23 *705:A3 *168:88 0.00219875
24 *714:A2 *168:60 6.60042e-05
25 *714:B1_N *168:60 0.000156769
26 *715:C *168:82 0.000144846
27 *749:A *168:26 3.67779e-05
28 *754:B *168:60 1.26044e-05
29 *754:B *168:82 2.30141e-05
30 *760:B1 *168:88 2.20014e-05
31 *772:A1 *168:60 0.000286629
32 *796:A *168:82 1.52352e-05
33 *816:CLK *168:26 0.000141874
34 *816:D *168:16 6.32187e-05
35 *816:D *168:26 4.80285e-05
36 *819:RESET_B *755:A 0.000164257
37 *825:D *168:16 0.000166106
38 *825:RESET_B *168:82 0.000447791
39 *829:D *755:A 0
40 *830:CLK *168:82 4.71087e-05
41 *830:D *168:60 2.35435e-05
42 *830:D *168:82 0.000158194
43 *830:RESET_B *168:82 0.000114435
44 *834:CLK *168:26 0.000122497
45 *836:D *168:82 7.75274e-05
46 *841:D *755:A 9.50936e-05
47 *841:RESET_B *755:A 2.0514e-05
48 *5:13 *168:52 0.000546888
49 *5:13 *168:60 0.000132363
50 *29:18 *168:60 0.000852363
51 *29:18 *168:82 0.000306601
52 *33:18 *168:88 0.00332279
53 *81:51 *755:A 0.000235375
54 *90:12 *168:60 0.000262813
55 *110:58 *755:A 0.000124724
56 *114:26 *755:A 4.61701e-06
57 *121:12 *168:52 4.84472e-05
58 *128:105 *168:26 2.35435e-05
59 *128:105 *168:52 0.000653364
60 *128:105 *168:60 0.000134037
61 *128:115 *168:26 1.16854e-05
62 *131:20 *168:88 0
63 *133:30 *168:26 0.000377735
64 *133:30 *168:60 0.000118081
65 *142:58 *168:88 0
66 *147:14 *691:B 2.49909e-05
67 *147:16 *691:B 1.91597e-05
68 *148:22 *755:A 0
69 *149:8 *168:82 9.12494e-06
70 *161:21 *168:16 0.000135896
71 *161:21 *168:52 0.000113287
72 *161:46 *168:16 0.000116151
*RES
1 *825:Q *168:16 13.91 
2 *168:16 *168:26 18.19 
3 *168:26 *755:A 18.8 
4 *168:26 *759:B 1.6 
5 *168:16 *168:52 11.03 
6 *168:52 *168:60 21.695 
7 *168:60 *168:82 30.675 
8 *168:82 *168:88 49.04 
9 *168:88 *760:A2 1.6 
10 *168:60 *754:A 1.6 
11 *168:52 *691:B 4.74 
*END

*D_NET *169 0.0217359
*CONN
*I *759:A I *D sky130_fd_sc_hd__and3_1
*I *691:A I *D sky130_fd_sc_hd__and4_1
*I *760:A1 I *D sky130_fd_sc_hd__a31o_1
*I *758:A I *D sky130_fd_sc_hd__xnor2_1
*I *826:Q O *D sky130_fd_sc_hd__dfrtp_2
*CAP
1 *759:A 0.00240101
2 *691:A 0
3 *760:A1 0.00112036
4 *758:A 1.3905e-05
5 *826:Q 0
6 *169:54 0.0030536
7 *169:16 0.00242162
8 *169:6 0.00193994
9 *759:A *852:A 5.39961e-05
10 *759:A *853:A 0.000188369
11 *760:A1 *856:A 1.21007e-05
12 *169:16 *856:A 0.000347724
13 *169:54 *853:A 3.21101e-05
14 seg[1] *759:A 2.05641e-05
15 *687:B *760:A1 5.04099e-05
16 *687:C *760:A1 0.000116027
17 *690:D *759:A 0.000232258
18 *702:C *759:A 4.66826e-05
19 *711:B *760:A1 0.000125678
20 *711:C *760:A1 0.000188545
21 *713:C *759:A 0.000461602
22 *716:A1_N *169:54 0.000111029
23 *717:A *759:A 0.000269873
24 *722:A *169:16 0.000209258
25 *723:A *169:16 0.000775547
26 *723:A *169:54 0.00048634
27 *756:B *760:A1 8.7152e-06
28 *757:A *760:A1 0.000301499
29 *759:C *759:A 0.000184991
30 *760:B1 *760:A1 0.000568842
31 *761:B1_N *760:A1 0.000129707
32 *772:A1 *759:A 0
33 *772:B1 *759:A 0.000185399
34 *774:A *760:A1 4.3584e-05
35 *778:B *169:16 0.000236538
36 *787:A *758:A 8.52883e-05
37 *787:A *760:A1 9.43764e-06
38 *787:A *169:16 0.000192489
39 *799:A *759:A 0.000159333
40 *806:A *169:16 8.54281e-05
41 *816:D *169:54 0.000406044
42 *821:RESET_B *169:16 0.00131418
43 *821:RESET_B *169:54 0.00111548
44 *826:D *169:16 2.49909e-05
45 *828:RESET_B *759:A 3.90873e-06
46 *835:D *169:16 8.46818e-05
47 *841:RESET_B *759:A 7.25441e-05
48 *39:10 *759:A 0
49 *73:12 *169:54 0.00025845
50 *89:26 *760:A1 0.000157049
51 *130:78 *169:54 0.000388413
52 *130:91 *169:54 0.000196613
53 *131:20 *760:A1 2.50267e-05
54 *141:79 *169:54 0.000769764
55 *168:88 *760:A1 4.89295e-05
*RES
1 *826:Q *169:6 3.6 
2 *169:6 *169:16 33.755 
3 *169:16 *758:A 2.395 
4 *169:16 *760:A1 27.755 
5 *169:6 *169:54 26.99 
6 *169:54 *691:A 1.6 
7 *169:54 *759:A 40.745 
*END

*D_NET *170 0.00844893
*CONN
*I *851:A I *D sky130_fd_sc_hd__buf_1
*I *842:X O *D sky130_fd_sc_hd__buf_1
*CAP
1 *851:A 0.0013022
2 *842:X 0.000956059
3 *170:16 0.00225826
4 *170:16 *842:A 7.33728e-05
5 *696:A *170:16 0.000354719
6 *696:C *170:16 0.000661153
7 *749:B *170:16 0.000428812
8 *752:A_N *851:A 4.82863e-05
9 *752:A_N *170:16 0.000409101
10 *752:B *170:16 0.00042393
11 *753:A *851:A 0.000251928
12 *75:25 *170:16 0
13 *77:86 *170:16 0
14 *106:26 *170:16 0
15 *165:77 *851:A 0.000995276
16 *165:77 *170:16 0.000285835
*RES
1 *842:X *170:16 30.17 
2 *170:16 *851:A 27.58 
*END

*D_NET *171 0.00254437
*CONN
*I *852:A I *D sky130_fd_sc_hd__buf_1
*I *726:Y O *D sky130_fd_sc_hd__nor2_1
*CAP
1 *852:A 0.00101464
2 *726:Y 0.00101464
3 *759:A *852:A 5.39961e-05
4 *772:A2 *852:A 0.000157171
5 *39:10 *852:A 0
6 *121:12 *852:A 0.000303911
*RES
1 *726:Y *852:A 20.385 
*END

*D_NET *172 0.0116024
*CONN
*I *853:A I *D sky130_fd_sc_hd__buf_1
*I *727:X O *D sky130_fd_sc_hd__o21a_1
*CAP
1 *853:A 0.00093727
2 *727:X 0.00127551
3 *172:18 0.00221278
4 *172:18 *842:A 0.00022618
5 *691:B *853:A 0.000118081
6 *691:D *853:A 0.000446189
7 *692:A *172:18 3.23391e-05
8 *693:B *172:18 0.000276123
9 *695:B *172:18 7.01359e-05
10 *715:A *853:A 0.00165208
11 *715:C *172:18 4.46271e-05
12 *725:A1 *172:18 0.000238972
13 *725:A2 *172:18 3.18964e-05
14 *740:A *172:18 3.92416e-05
15 *759:A *853:A 0.000188369
16 *785:A *853:A 8.23457e-05
17 *786:A *853:A 4.66108e-05
18 *816:RESET_B *853:A 9.57985e-05
19 *825:RESET_B *853:A 0.000845749
20 *836:CLK *172:18 1.21869e-05
21 *836:D *172:18 0.000429743
22 *75:56 *172:18 0
23 *135:14 *853:A 0.00168267
24 *147:14 *853:A 0.000533774
25 *168:82 *172:18 5.16348e-05
26 *169:54 *853:A 3.21101e-05
*RES
1 *727:X *172:18 31.095 
2 *172:18 *853:A 33.49 
*END

*D_NET *173 0.0115808
*CONN
*I *854:A I *D sky130_fd_sc_hd__buf_1
*I *842:A I *D sky130_fd_sc_hd__buf_1
*I *725:X O *D sky130_fd_sc_hd__a2111o_1
*CAP
1 *854:A 0.00172487
2 *842:A 0.000745512
3 *725:X 3.98651e-05
4 *173:6 0.00251025
5 *693:B *842:A 0.000662769
6 *695:B *842:A 6.90254e-05
7 *707:A *854:A 0.000525508
8 *709:B1 *842:A 0
9 *715:B *842:A 2.23107e-05
10 *725:B1 *854:A 0.000526215
11 *725:B1 *173:6 0.000129816
12 *725:C1 *854:A 5.9067e-05
13 *725:C1 *173:6 9.35688e-05
14 *768:B *854:A 5.22524e-05
15 *790:A *854:A 4.66108e-05
16 *800:A *854:A 0.000147494
17 *814:RESET_B *854:A 0.000102996
18 *817:D *842:A 0
19 *820:D *854:A 0.000907483
20 *820:RESET_B *854:A 0.000239314
21 *31:20 *842:A 0.000236126
22 *57:12 *854:A 0.00124838
23 *75:56 *842:A 8.80265e-05
24 *75:56 *854:A 0.000414465
25 *77:86 *842:A 0
26 *83:18 *842:A 3.60648e-06
27 *89:26 *854:A 9.30717e-05
28 *106:26 *842:A 0
29 *129:102 *854:A 0.000119756
30 *133:10 *854:A 0.000132709
31 *136:8 *854:A 4.77719e-05
32 *142:130 *854:A 0.00018955
33 *163:24 *854:A 0.000102838
34 *170:16 *842:A 7.33728e-05
35 *172:18 *842:A 0.00022618
*RES
1 *725:X *173:6 3.085 
2 *173:6 *842:A 22.16 
3 *173:6 *854:A 47.27 
*END

*D_NET *174 0.0074411
*CONN
*I *855:A I *D sky130_fd_sc_hd__buf_1
*I *728:Y O *D sky130_fd_sc_hd__nand2_1
*CAP
1 *855:A 0.00167396
2 *728:Y 0.00167396
3 *697:B *855:A 7.19567e-05
4 *705:B1 *855:A 0.000147683
5 *710:B1 *855:A 7.30547e-05
6 *721:B *855:A 0.00107685
7 *734:B *855:A 0.000733895
8 *737:A *855:A 0.000109931
9 *92:14 *855:A 0.00091061
10 *95:37 *855:A 1.92979e-05
11 *154:48 *855:A 0.000441818
12 *166:22 *855:A 0.00050809
*RES
1 *728:Y *855:A 44.235 
*END

*D_NET *175 0.0108815
*CONN
*I *856:A I *D sky130_fd_sc_hd__buf_1
*I *730:X O *D sky130_fd_sc_hd__clkbuf_1
*CAP
1 *856:A 0.00336385
2 *730:X 0.000129975
3 *175:10 0.00349382
4 *746:A *856:A 6.80137e-05
5 *746:B *856:A 1.05984e-05
6 *760:A1 *856:A 1.21007e-05
7 *778:B *856:A 9.52499e-05
8 *787:A *856:A 0.000302096
9 *806:A *856:A 0.000344632
10 *822:D *856:A 0.000848045
11 *835:D *856:A 2.99026e-05
12 *835:RESET_B *856:A 8.66929e-05
13 *837:D *175:10 0.000243744
14 *64:16 *856:A 0.000141599
15 *89:26 *856:A 0.000849996
16 *95:8 *856:A 0
17 *106:50 *175:10 0.000416582
18 *142:58 *175:10 9.68787e-05
19 *169:16 *856:A 0.000347724
*RES
1 *730:X *175:10 10.55 
2 *175:10 *856:A 49.745 
*END

*D_NET *176 0.00793569
*CONN
*I *857:A I *D sky130_fd_sc_hd__buf_1
*I *731:Y O *D sky130_fd_sc_hd__a21boi_1
*CAP
1 *857:A 0.00194029
2 *731:Y 0.00194029
3 AN[2] *857:A 1.4399e-05
4 AN[3] *857:A 1.4399e-05
5 *722:A *857:A 3.54294e-05
6 *722:B *857:A 0.00248346
7 *747:B *857:A 9.12494e-06
8 *39:8 *857:A 0.00149829
*RES
1 *731:Y *857:A 48.03 
*END
