*SPEF "ieee 1481-1999"
*DESIGN "ZeroToFiveCounter"
*DATE "22:11:59 Saturday May 24, 2025"
*VENDOR "The OpenROAD Project"
*PROGRAM "OpenROAD"
*VERSION "b16bda7e82721d10566ff7e2b68f1ff0be9f9e38"
*DESIGN_FLOW "NAME_SCOPE LOCAL" "PIN_CAP NONE"
*DIVIDER /
*DELIMITER :
*BUS_DELIMITER []
*T_UNIT 1 NS
*C_UNIT 1 PF
*R_UNIT 1 OHM
*L_UNIT 1 HENRY

*NAME_MAP
*1 net8
*2 net9
*3 net10
*4 net11
*5 BTNC
*6 CLK100MHZ
*9 seg[0]
*10 seg[1]
*11 seg[2]
*12 seg[3]
*13 seg[4]
*14 seg[5]
*15 seg[6]
*16 _000_
*17 _001_
*18 _002_
*19 _003_
*20 _004_
*21 _005_
*22 _006_
*23 _007_
*24 _008_
*25 _009_
*26 _010_
*27 _011_
*28 _012_
*29 _013_
*30 _014_
*31 _015_
*32 _016_
*33 _017_
*34 _018_
*35 _019_
*36 _020_
*37 _021_
*38 _022_
*39 _023_
*40 _024_
*41 _025_
*42 _026_
*43 _027_
*44 _028_
*45 _029_
*46 _030_
*47 _031_
*48 _032_
*49 _033_
*50 _034_
*51 _035_
*52 _036_
*53 _037_
*54 _038_
*55 _039_
*56 _040_
*57 _041_
*58 _042_
*59 _043_
*60 _044_
*61 _045_
*62 _046_
*63 _047_
*64 _048_
*65 _049_
*66 _050_
*67 _051_
*68 _052_
*69 _053_
*70 _054_
*71 _055_
*72 _056_
*73 _057_
*74 _058_
*75 _059_
*76 _060_
*77 _061_
*78 _062_
*79 _063_
*80 _064_
*81 _065_
*82 _066_
*83 _067_
*84 _068_
*85 _069_
*86 _070_
*87 _071_
*88 _072_
*89 _073_
*90 _074_
*91 _075_
*92 _076_
*93 _077_
*94 _078_
*95 _079_
*96 _080_
*97 _081_
*98 _082_
*99 _083_
*100 _084_
*101 _085_
*102 _086_
*103 _087_
*104 _088_
*105 _089_
*106 _090_
*107 _091_
*108 _092_
*109 _093_
*110 _094_
*111 _095_
*112 _096_
*113 _097_
*114 _098_
*115 _099_
*116 _100_
*117 _101_
*118 _102_
*119 _103_
*120 _104_
*121 _105_
*122 _106_
*123 _107_
*124 _108_
*125 _109_
*126 _110_
*127 _111_
*128 _112_
*129 _113_
*130 _114_
*131 _115_
*132 _116_
*133 _117_
*134 _118_
*135 _119_
*136 clknet_0_CLK100MHZ
*137 clknet_2_0__leaf_CLK100MHZ
*138 clknet_2_1__leaf_CLK100MHZ
*139 clknet_2_2__leaf_CLK100MHZ
*140 clknet_2_3__leaf_CLK100MHZ
*141 decoder\.count\[0\]
*142 decoder\.count\[1\]
*143 decoder\.count\[2\]
*144 decoder\.count\[3\]
*145 decoder\.delay\[0\]
*146 decoder\.delay\[10\]
*147 decoder\.delay\[11\]
*148 decoder\.delay\[12\]
*149 decoder\.delay\[13\]
*150 decoder\.delay\[14\]
*151 decoder\.delay\[15\]
*152 decoder\.delay\[16\]
*153 decoder\.delay\[17\]
*154 decoder\.delay\[18\]
*155 decoder\.delay\[19\]
*156 decoder\.delay\[1\]
*157 decoder\.delay\[20\]
*158 decoder\.delay\[21\]
*159 decoder\.delay\[22\]
*160 decoder\.delay\[23\]
*161 decoder\.delay\[24\]
*162 decoder\.delay\[2\]
*163 decoder\.delay\[3\]
*164 decoder\.delay\[4\]
*165 decoder\.delay\[5\]
*166 decoder\.delay\[6\]
*167 decoder\.delay\[7\]
*168 decoder\.delay\[8\]
*169 decoder\.delay\[9\]
*170 net1
*171 net2
*172 net3
*173 net4
*174 net5
*175 net6
*176 net7
*177 ANTENNA_1
*178 FILLER_0_0_10
*179 FILLER_0_0_100
*180 FILLER_0_0_124
*181 FILLER_0_0_22
*182 FILLER_0_0_29
*183 FILLER_0_0_3
*184 FILLER_0_0_41
*185 FILLER_0_0_48
*186 FILLER_0_0_57
*187 FILLER_0_0_69
*188 FILLER_0_0_80
*189 FILLER_0_0_88
*190 FILLER_0_10_112
*191 FILLER_0_10_12
*192 FILLER_0_10_124
*193 FILLER_0_10_23
*194 FILLER_0_10_27
*195 FILLER_0_10_29
*196 FILLER_0_10_3
*197 FILLER_0_10_41
*198 FILLER_0_10_53
*199 FILLER_0_10_65
*200 FILLER_0_10_77
*201 FILLER_0_10_83
*202 FILLER_0_10_85
*203 FILLER_0_11_105
*204 FILLER_0_11_111
*205 FILLER_0_11_113
*206 FILLER_0_11_121
*207 FILLER_0_11_18
*208 FILLER_0_11_30
*209 FILLER_0_11_42
*210 FILLER_0_11_54
*211 FILLER_0_11_57
*212 FILLER_0_11_6
*213 FILLER_0_11_69
*214 FILLER_0_11_81
*215 FILLER_0_11_93
*216 FILLER_0_12_109
*217 FILLER_0_12_121
*218 FILLER_0_12_15
*219 FILLER_0_12_27
*220 FILLER_0_12_29
*221 FILLER_0_12_3
*222 FILLER_0_12_41
*223 FILLER_0_12_53
*224 FILLER_0_12_65
*225 FILLER_0_12_77
*226 FILLER_0_12_83
*227 FILLER_0_12_85
*228 FILLER_0_12_97
*229 FILLER_0_13_105
*230 FILLER_0_13_111
*231 FILLER_0_13_123
*232 FILLER_0_13_15
*233 FILLER_0_13_27
*234 FILLER_0_13_3
*235 FILLER_0_13_39
*236 FILLER_0_13_51
*237 FILLER_0_13_55
*238 FILLER_0_13_57
*239 FILLER_0_13_65
*240 FILLER_0_13_93
*241 FILLER_0_14_107
*242 FILLER_0_14_119
*243 FILLER_0_14_15
*244 FILLER_0_14_27
*245 FILLER_0_14_3
*246 FILLER_0_14_35
*247 FILLER_0_14_47
*248 FILLER_0_14_57
*249 FILLER_0_14_69
*250 FILLER_0_14_81
*251 FILLER_0_14_85
*252 FILLER_0_14_97
*253 FILLER_0_15_110
*254 FILLER_0_15_113
*255 FILLER_0_15_15
*256 FILLER_0_15_23
*257 FILLER_0_15_3
*258 FILLER_0_15_46
*259 FILLER_0_15_77
*260 FILLER_0_15_81
*261 FILLER_0_15_86
*262 FILLER_0_15_98
*263 FILLER_0_16_109
*264 FILLER_0_16_115
*265 FILLER_0_16_119
*266 FILLER_0_16_14
*267 FILLER_0_16_26
*268 FILLER_0_16_29
*269 FILLER_0_16_41
*270 FILLER_0_16_53
*271 FILLER_0_16_6
*272 FILLER_0_16_75
*273 FILLER_0_16_83
*274 FILLER_0_16_85
*275 FILLER_0_16_97
*276 FILLER_0_17_101
*277 FILLER_0_17_105
*278 FILLER_0_17_113
*279 FILLER_0_17_29
*280 FILLER_0_17_41
*281 FILLER_0_17_53
*282 FILLER_0_17_65
*283 FILLER_0_17_74
*284 FILLER_0_17_81
*285 FILLER_0_17_93
*286 FILLER_0_18_103
*287 FILLER_0_18_15
*288 FILLER_0_18_27
*289 FILLER_0_18_29
*290 FILLER_0_18_36
*291 FILLER_0_18_63
*292 FILLER_0_18_75
*293 FILLER_0_18_83
*294 FILLER_0_18_85
*295 FILLER_0_18_97
*296 FILLER_0_19_105
*297 FILLER_0_19_111
*298 FILLER_0_19_119
*299 FILLER_0_19_16
*300 FILLER_0_19_29
*301 FILLER_0_19_3
*302 FILLER_0_19_57
*303 FILLER_0_19_69
*304 FILLER_0_19_7
*305 FILLER_0_19_81
*306 FILLER_0_19_93
*307 FILLER_0_1_108
*308 FILLER_0_1_113
*309 FILLER_0_1_38
*310 FILLER_0_1_46
*311 FILLER_0_1_54
*312 FILLER_0_1_57
*313 FILLER_0_1_66
*314 FILLER_0_1_72
*315 FILLER_0_1_84
*316 FILLER_0_1_9
*317 FILLER_0_1_96
*318 FILLER_0_20_109
*319 FILLER_0_20_121
*320 FILLER_0_20_15
*321 FILLER_0_20_27
*322 FILLER_0_20_29
*323 FILLER_0_20_3
*324 FILLER_0_20_37
*325 FILLER_0_20_45
*326 FILLER_0_20_57
*327 FILLER_0_20_69
*328 FILLER_0_20_81
*329 FILLER_0_20_85
*330 FILLER_0_20_97
*331 FILLER_0_21_101
*332 FILLER_0_21_109
*333 FILLER_0_21_113
*334 FILLER_0_21_14
*335 FILLER_0_21_20
*336 FILLER_0_21_28
*337 FILLER_0_21_3
*338 FILLER_0_21_54
*339 FILLER_0_21_57
*340 FILLER_0_21_77
*341 FILLER_0_21_89
*342 FILLER_0_22_100
*343 FILLER_0_22_110
*344 FILLER_0_22_15
*345 FILLER_0_22_22
*346 FILLER_0_22_29
*347 FILLER_0_22_3
*348 FILLER_0_22_37
*349 FILLER_0_22_59
*350 FILLER_0_22_71
*351 FILLER_0_22_83
*352 FILLER_0_22_88
*353 FILLER_0_23_106
*354 FILLER_0_23_113
*355 FILLER_0_23_3
*356 FILLER_0_23_35
*357 FILLER_0_23_45
*358 FILLER_0_23_52
*359 FILLER_0_23_57
*360 FILLER_0_23_66
*361 FILLER_0_23_94
*362 FILLER_0_24_102
*363 FILLER_0_24_123
*364 FILLER_0_24_15
*365 FILLER_0_24_27
*366 FILLER_0_24_29
*367 FILLER_0_24_3
*368 FILLER_0_24_41
*369 FILLER_0_24_53
*370 FILLER_0_24_82
*371 FILLER_0_24_85
*372 FILLER_0_24_97
*373 FILLER_0_25_12
*374 FILLER_0_25_120
*375 FILLER_0_25_124
*376 FILLER_0_25_24
*377 FILLER_0_25_3
*378 FILLER_0_25_36
*379 FILLER_0_25_41
*380 FILLER_0_25_53
*381 FILLER_0_25_57
*382 FILLER_0_26_122
*383 FILLER_0_26_24
*384 FILLER_0_26_29
*385 FILLER_0_26_3
*386 FILLER_0_26_41
*387 FILLER_0_26_73
*388 FILLER_0_26_81
*389 FILLER_0_26_85
*390 FILLER_0_26_9
*391 FILLER_0_26_93
*392 FILLER_0_26_97
*393 FILLER_0_27_108
*394 FILLER_0_27_117
*395 FILLER_0_27_121
*396 FILLER_0_27_15
*397 FILLER_0_27_26
*398 FILLER_0_27_3
*399 FILLER_0_27_38
*400 FILLER_0_27_48
*401 FILLER_0_27_57
*402 FILLER_0_27_63
*403 FILLER_0_27_69
*404 FILLER_0_27_81
*405 FILLER_0_28_119
*406 FILLER_0_28_17
*407 FILLER_0_28_25
*408 FILLER_0_28_29
*409 FILLER_0_28_3
*410 FILLER_0_28_37
*411 FILLER_0_28_59
*412 FILLER_0_28_65
*413 FILLER_0_28_71
*414 FILLER_0_28_83
*415 FILLER_0_28_85
*416 FILLER_0_28_9
*417 FILLER_0_28_93
*418 FILLER_0_29_107
*419 FILLER_0_29_111
*420 FILLER_0_29_113
*421 FILLER_0_29_15
*422 FILLER_0_29_27
*423 FILLER_0_29_3
*424 FILLER_0_29_33
*425 FILLER_0_29_44
*426 FILLER_0_29_57
*427 FILLER_0_29_69
*428 FILLER_0_29_82
*429 FILLER_0_29_90
*430 FILLER_0_29_95
*431 FILLER_0_2_119
*432 FILLER_0_2_15
*433 FILLER_0_2_27
*434 FILLER_0_2_29
*435 FILLER_0_2_3
*436 FILLER_0_2_40
*437 FILLER_0_2_44
*438 FILLER_0_2_53
*439 FILLER_0_2_62
*440 FILLER_0_2_69
*441 FILLER_0_2_7
*442 FILLER_0_2_81
*443 FILLER_0_2_85
*444 FILLER_0_2_91
*445 FILLER_0_2_97
*446 FILLER_0_30_111
*447 FILLER_0_30_119
*448 FILLER_0_30_15
*449 FILLER_0_30_27
*450 FILLER_0_30_29
*451 FILLER_0_30_3
*452 FILLER_0_30_37
*453 FILLER_0_30_60
*454 FILLER_0_30_72
*455 FILLER_0_30_85
*456 FILLER_0_30_93
*457 FILLER_0_30_99
*458 FILLER_0_31_109
*459 FILLER_0_31_113
*460 FILLER_0_31_121
*461 FILLER_0_31_15
*462 FILLER_0_31_19
*463 FILLER_0_31_27
*464 FILLER_0_31_29
*465 FILLER_0_31_3
*466 FILLER_0_31_41
*467 FILLER_0_31_53
*468 FILLER_0_31_57
*469 FILLER_0_31_69
*470 FILLER_0_31_81
*471 FILLER_0_31_85
*472 FILLER_0_31_97
*473 FILLER_0_3_111
*474 FILLER_0_3_113
*475 FILLER_0_3_12
*476 FILLER_0_3_121
*477 FILLER_0_3_24
*478 FILLER_0_3_3
*479 FILLER_0_3_34
*480 FILLER_0_3_48
*481 FILLER_0_3_57
*482 FILLER_0_3_68
*483 FILLER_0_3_87
*484 FILLER_0_3_99
*485 FILLER_0_4_102
*486 FILLER_0_4_106
*487 FILLER_0_4_11
*488 FILLER_0_4_123
*489 FILLER_0_4_16
*490 FILLER_0_4_29
*491 FILLER_0_4_3
*492 FILLER_0_4_41
*493 FILLER_0_4_61
*494 FILLER_0_4_85
*495 FILLER_0_4_93
*496 FILLER_0_5_105
*497 FILLER_0_5_111
*498 FILLER_0_5_113
*499 FILLER_0_5_121
*500 FILLER_0_5_23
*501 FILLER_0_5_53
*502 FILLER_0_5_57
*503 FILLER_0_5_63
*504 FILLER_0_5_69
*505 FILLER_0_5_81
*506 FILLER_0_5_93
*507 FILLER_0_6_106
*508 FILLER_0_6_115
*509 FILLER_0_6_123
*510 FILLER_0_6_18
*511 FILLER_0_6_26
*512 FILLER_0_6_29
*513 FILLER_0_6_35
*514 FILLER_0_6_57
*515 FILLER_0_6_6
*516 FILLER_0_6_83
*517 FILLER_0_7_10
*518 FILLER_0_7_108
*519 FILLER_0_7_113
*520 FILLER_0_7_16
*521 FILLER_0_7_22
*522 FILLER_0_7_3
*523 FILLER_0_7_49
*524 FILLER_0_7_55
*525 FILLER_0_7_57
*526 FILLER_0_7_63
*527 FILLER_0_7_96
*528 FILLER_0_8_106
*529 FILLER_0_8_115
*530 FILLER_0_8_123
*531 FILLER_0_8_19
*532 FILLER_0_8_24
*533 FILLER_0_8_3
*534 FILLER_0_8_35
*535 FILLER_0_8_43
*536 FILLER_0_8_55
*537 FILLER_0_8_67
*538 FILLER_0_8_7
*539 FILLER_0_8_79
*540 FILLER_0_8_83
*541 FILLER_0_8_85
*542 FILLER_0_8_97
*543 FILLER_0_9_111
*544 FILLER_0_9_113
*545 FILLER_0_9_3
*546 FILLER_0_9_34
*547 FILLER_0_9_57
*548 FILLER_0_9_70
*549 FILLER_0_9_91
*550 FILLER_0_9_99
*551 PHY_EDGE_ROW_0_Left_32
*552 PHY_EDGE_ROW_0_Right_0
*553 PHY_EDGE_ROW_10_Left_42
*554 PHY_EDGE_ROW_10_Right_10
*555 PHY_EDGE_ROW_11_Left_43
*556 PHY_EDGE_ROW_11_Right_11
*557 PHY_EDGE_ROW_12_Left_44
*558 PHY_EDGE_ROW_12_Right_12
*559 PHY_EDGE_ROW_13_Left_45
*560 PHY_EDGE_ROW_13_Right_13
*561 PHY_EDGE_ROW_14_Left_46
*562 PHY_EDGE_ROW_14_Right_14
*563 PHY_EDGE_ROW_15_Left_47
*564 PHY_EDGE_ROW_15_Right_15
*565 PHY_EDGE_ROW_16_Left_48
*566 PHY_EDGE_ROW_16_Right_16
*567 PHY_EDGE_ROW_17_Left_49
*568 PHY_EDGE_ROW_17_Right_17
*569 PHY_EDGE_ROW_18_Left_50
*570 PHY_EDGE_ROW_18_Right_18
*571 PHY_EDGE_ROW_19_Left_51
*572 PHY_EDGE_ROW_19_Right_19
*573 PHY_EDGE_ROW_1_Left_33
*574 PHY_EDGE_ROW_1_Right_1
*575 PHY_EDGE_ROW_20_Left_52
*576 PHY_EDGE_ROW_20_Right_20
*577 PHY_EDGE_ROW_21_Left_53
*578 PHY_EDGE_ROW_21_Right_21
*579 PHY_EDGE_ROW_22_Left_54
*580 PHY_EDGE_ROW_22_Right_22
*581 PHY_EDGE_ROW_23_Left_55
*582 PHY_EDGE_ROW_23_Right_23
*583 PHY_EDGE_ROW_24_Left_56
*584 PHY_EDGE_ROW_24_Right_24
*585 PHY_EDGE_ROW_25_Left_57
*586 PHY_EDGE_ROW_25_Right_25
*587 PHY_EDGE_ROW_26_Left_58
*588 PHY_EDGE_ROW_26_Right_26
*589 PHY_EDGE_ROW_27_Left_59
*590 PHY_EDGE_ROW_27_Right_27
*591 PHY_EDGE_ROW_28_Left_60
*592 PHY_EDGE_ROW_28_Right_28
*593 PHY_EDGE_ROW_29_Left_61
*594 PHY_EDGE_ROW_29_Right_29
*595 PHY_EDGE_ROW_2_Left_34
*596 PHY_EDGE_ROW_2_Right_2
*597 PHY_EDGE_ROW_30_Left_62
*598 PHY_EDGE_ROW_30_Right_30
*599 PHY_EDGE_ROW_31_Left_63
*600 PHY_EDGE_ROW_31_Right_31
*601 PHY_EDGE_ROW_3_Left_35
*602 PHY_EDGE_ROW_3_Right_3
*603 PHY_EDGE_ROW_4_Left_36
*604 PHY_EDGE_ROW_4_Right_4
*605 PHY_EDGE_ROW_5_Left_37
*606 PHY_EDGE_ROW_5_Right_5
*607 PHY_EDGE_ROW_6_Left_38
*608 PHY_EDGE_ROW_6_Right_6
*609 PHY_EDGE_ROW_7_Left_39
*610 PHY_EDGE_ROW_7_Right_7
*611 PHY_EDGE_ROW_8_Left_40
*612 PHY_EDGE_ROW_8_Right_8
*613 PHY_EDGE_ROW_9_Left_41
*614 PHY_EDGE_ROW_9_Right_9
*615 TAP_TAPCELL_ROW_0_64
*616 TAP_TAPCELL_ROW_0_65
*617 TAP_TAPCELL_ROW_0_66
*618 TAP_TAPCELL_ROW_0_67
*619 TAP_TAPCELL_ROW_10_86
*620 TAP_TAPCELL_ROW_10_87
*621 TAP_TAPCELL_ROW_11_88
*622 TAP_TAPCELL_ROW_11_89
*623 TAP_TAPCELL_ROW_12_90
*624 TAP_TAPCELL_ROW_12_91
*625 TAP_TAPCELL_ROW_13_92
*626 TAP_TAPCELL_ROW_13_93
*627 TAP_TAPCELL_ROW_14_94
*628 TAP_TAPCELL_ROW_14_95
*629 TAP_TAPCELL_ROW_15_96
*630 TAP_TAPCELL_ROW_15_97
*631 TAP_TAPCELL_ROW_16_98
*632 TAP_TAPCELL_ROW_16_99
*633 TAP_TAPCELL_ROW_17_100
*634 TAP_TAPCELL_ROW_17_101
*635 TAP_TAPCELL_ROW_18_102
*636 TAP_TAPCELL_ROW_18_103
*637 TAP_TAPCELL_ROW_19_104
*638 TAP_TAPCELL_ROW_19_105
*639 TAP_TAPCELL_ROW_1_68
*640 TAP_TAPCELL_ROW_1_69
*641 TAP_TAPCELL_ROW_20_106
*642 TAP_TAPCELL_ROW_20_107
*643 TAP_TAPCELL_ROW_21_108
*644 TAP_TAPCELL_ROW_21_109
*645 TAP_TAPCELL_ROW_22_110
*646 TAP_TAPCELL_ROW_22_111
*647 TAP_TAPCELL_ROW_23_112
*648 TAP_TAPCELL_ROW_23_113
*649 TAP_TAPCELL_ROW_24_114
*650 TAP_TAPCELL_ROW_24_115
*651 TAP_TAPCELL_ROW_25_116
*652 TAP_TAPCELL_ROW_25_117
*653 TAP_TAPCELL_ROW_26_118
*654 TAP_TAPCELL_ROW_26_119
*655 TAP_TAPCELL_ROW_27_120
*656 TAP_TAPCELL_ROW_27_121
*657 TAP_TAPCELL_ROW_28_122
*658 TAP_TAPCELL_ROW_28_123
*659 TAP_TAPCELL_ROW_29_124
*660 TAP_TAPCELL_ROW_29_125
*661 TAP_TAPCELL_ROW_2_70
*662 TAP_TAPCELL_ROW_2_71
*663 TAP_TAPCELL_ROW_30_126
*664 TAP_TAPCELL_ROW_30_127
*665 TAP_TAPCELL_ROW_31_128
*666 TAP_TAPCELL_ROW_31_129
*667 TAP_TAPCELL_ROW_31_130
*668 TAP_TAPCELL_ROW_31_131
*669 TAP_TAPCELL_ROW_3_72
*670 TAP_TAPCELL_ROW_3_73
*671 TAP_TAPCELL_ROW_4_74
*672 TAP_TAPCELL_ROW_4_75
*673 TAP_TAPCELL_ROW_5_76
*674 TAP_TAPCELL_ROW_5_77
*675 TAP_TAPCELL_ROW_6_78
*676 TAP_TAPCELL_ROW_6_79
*677 TAP_TAPCELL_ROW_7_80
*678 TAP_TAPCELL_ROW_7_81
*679 TAP_TAPCELL_ROW_8_82
*680 TAP_TAPCELL_ROW_8_83
*681 TAP_TAPCELL_ROW_9_84
*682 TAP_TAPCELL_ROW_9_85
*683 ZeroToFiveCounter_10
*684 ZeroToFiveCounter_11
*685 ZeroToFiveCounter_8
*686 ZeroToFiveCounter_9
*687 _120_
*688 _121_
*689 _122_
*690 _123_
*691 _124_
*692 _125_
*693 _126_
*694 _127_
*695 _128_
*696 _129_
*697 _130_
*698 _131_
*699 _132_
*700 _133_
*701 _134_
*702 _135_
*703 _136_
*704 _137_
*705 _138_
*706 _139_
*707 _140_
*708 _141_
*709 _142_
*710 _143_
*711 _144_
*712 _145_
*713 _146_
*714 _147_
*715 _148_
*716 _149_
*717 _150_
*718 _151_
*719 _152_
*720 _153_
*721 _154_
*722 _155_
*723 _156_
*724 _157_
*725 _158_
*726 _159_
*727 _160_
*728 _161_
*729 _162_
*730 _163_
*731 _164_
*732 _165_
*733 _166_
*734 _167_
*735 _168_
*736 _169_
*737 _170_
*738 _171_
*739 _172_
*740 _173_
*741 _174_
*742 _175_
*743 _176_
*744 _177_
*745 _178_
*746 _179_
*747 _180_
*748 _181_
*749 _182_
*750 _183_
*751 _184_
*752 _185_
*753 _186_
*754 _187_
*755 _188_
*756 _189_
*757 _190_
*758 _191_
*759 _192_
*760 _193_
*761 _194_
*762 _195_
*763 _196_
*764 _197_
*765 _198_
*766 _199_
*767 _200_
*768 _201_
*769 _202_
*770 _203_
*771 _204_
*772 _205_
*773 _206_
*774 _207_
*775 _208_
*776 _209_
*777 _210_
*778 _211_
*779 _212_
*780 _213_
*781 _214_
*782 _215_
*783 _216_
*784 _217_
*785 _218_
*786 _219_
*787 _220_
*788 _221_
*789 _222_
*790 _223_
*791 _224_
*792 _225_
*793 _226_
*794 _227_
*795 _228_
*796 _229_
*797 _230_
*798 _231_
*799 _232_
*800 _233_
*801 _234_
*802 _235_
*803 _236_
*804 _237_
*805 _238_
*806 _239_
*807 _240_
*808 _241_
*809 _242_
*810 _243_
*811 _244_
*812 _245_
*813 _246_
*814 _247_
*815 _248_
*816 _249_
*817 _250_
*818 _251_
*819 _252_
*820 _253_
*821 _254_
*822 _255_
*823 _256_
*824 _257_
*825 _258_
*826 _259_
*827 _260_
*828 _261_
*829 _262_
*830 _263_
*831 _264_
*832 _265_
*833 _266_
*834 _267_
*835 _268_
*836 _269_
*837 _270_
*838 _271_
*839 _272_
*840 _273_
*841 _274_
*842 _279_
*843 clkbuf_0_CLK100MHZ
*844 clkbuf_2_0__f_CLK100MHZ
*845 clkbuf_2_1__f_CLK100MHZ
*846 clkbuf_2_2__f_CLK100MHZ
*847 clkbuf_2_3__f_CLK100MHZ
*848 clkload0
*849 clkload1
*850 clkload2
*851 output1
*852 output2
*853 output3
*854 output4
*855 output5
*856 output6
*857 output7

*PORTS
AN[0] O
AN[1] O
AN[2] O
AN[3] O
BTNC I
CLK100MHZ I
seg[0] O
seg[1] O
seg[2] O
seg[3] O
seg[4] O
seg[5] O
seg[6] O

*D_NET *1 0.000899015
*CONN
*P AN[0] O
*I *685:LO O *D sky130_fd_sc_hd__conb_1
*CAP
1 AN[0] 0.000392451
2 *685:LO 0.000392451
3 AN[0] seg[6] 0.000114113
4 AN[0] *95:8 0
*RES
1 *685:LO AN[0] 21.9607 
*END

*D_NET *2 0.000964093
*CONN
*P AN[1] O
*I *686:HI O *D sky130_fd_sc_hd__conb_1
*CAP
1 AN[1] 0.000454966
2 *686:HI 0.000454966
3 AN[1] *722:B 5.41609e-05
*RES
1 *686:HI AN[1] 22.05 
*END

*D_NET *3 0.000811966
*CONN
*P AN[2] O
*I *683:HI O *D sky130_fd_sc_hd__conb_1
*CAP
1 AN[2] 0.000398962
2 *683:HI 0.000398962
3 AN[2] *176:14 1.40415e-05
*RES
1 *683:HI AN[2] 21.2286 
*END

*D_NET *4 0.000811966
*CONN
*P AN[3] O
*I *684:HI O *D sky130_fd_sc_hd__conb_1
*CAP
1 AN[3] 0.000398962
2 *684:HI 0.000398962
3 AN[3] *176:14 1.40415e-05
*RES
1 *684:HI AN[3] 21.2286 
*END

*D_NET *5 0.0160277
*CONN
*P BTNC I
*I *781:A I *D sky130_fd_sc_hd__buf_4
*I *793:A I *D sky130_fd_sc_hd__buf_4
*CAP
1 BTNC 0.00367738
2 *781:A 0.000177697
3 *793:A 0.00033045
4 *5:13 0.00418553
5 *781:A *128:8 0.000345251
6 *793:A *119:29 0.000979099
7 *793:A *130:78 5.68713e-05
8 *793:A *130:101 0.000384139
9 *793:A *141:79 0.000131553
10 *793:A *142:168 0.000122417
11 *793:A *144:66 5.49544e-05
12 *5:13 *690:A 0
13 *5:13 *693:C 0.000100609
14 *5:13 *706:B 0.000216106
15 *5:13 *779:B 0.00209922
16 *5:13 *819:RESET_B 2.85021e-05
17 *5:13 *836:RESET_B 0
18 *5:13 *119:29 0.000190195
19 *5:13 *128:105 0.000103014
20 *5:13 *130:101 0.000800851
21 *5:13 *134:31 0.000819274
22 *5:13 *142:168 2.5738e-05
23 *5:13 *152:67 0.000286289
24 *5:13 *159:39 0
25 *5:13 *161:21 6.01774e-05
26 *5:13 *162:12 9.54448e-05
27 *5:13 *165:48 1.89621e-05
28 *5:13 *168:52 0.000592833
29 *5:13 *168:60 0.000145119
*RES
1 BTNC *5:13 26.5521 
2 *5:13 *793:A 26.9071 
3 *5:13 *781:A 17.2107 
*END

*D_NET *6 0.0108363
*CONN
*P CLK100MHZ I
*I *843:A I *D sky130_fd_sc_hd__clkbuf_16
*CAP
1 CLK100MHZ 0.00361765
2 *843:A 0.00361765
3 *843:A *701:A 9.38207e-05
4 *843:A *731:A2 7.10794e-05
5 *843:A *733:B 1.01912e-05
6 *843:A *737:A 0
7 *843:A *771:A1_N 1.78765e-05
8 *843:A *18:20 2.91072e-05
9 *843:A *45:32 0
10 *843:A *113:26 0.00127395
11 *843:A *114:26 0.00201205
12 *843:A *118:22 7.23523e-05
13 *843:A *148:62 2.06112e-05
*RES
1 CLK100MHZ *843:A 33.7663 
*END

*D_NET *9 0.000728191
*CONN
*P seg[0] O
*I *851:X O *D sky130_fd_sc_hd__buf_1
*CAP
1 seg[0] 0.000364096
2 *851:X 0.000364096
*RES
1 *851:X seg[0] 19.9443 
*END

*D_NET *10 0.000654633
*CONN
*P seg[1] O
*I *852:X O *D sky130_fd_sc_hd__buf_1
*CAP
1 seg[1] 0.000316215
2 *852:X 0.000316215
3 seg[1] *169:71 2.22043e-05
*RES
1 *852:X seg[1] 18.1229 
*END

*D_NET *11 0.000893605
*CONN
*P seg[2] O
*I *853:X O *D sky130_fd_sc_hd__buf_1
*CAP
1 seg[2] 0.000389723
2 *853:X 0.000389723
3 seg[2] *64:14 0
4 seg[2] *147:14 0.000114159
*RES
1 *853:X seg[2] 19.3371 
*END

*D_NET *12 0.000667674
*CONN
*P seg[3] O
*I *854:X O *D sky130_fd_sc_hd__buf_1
*CAP
1 seg[3] 0.000303982
2 *854:X 0.000303982
3 seg[3] *39:10 5.97093e-05
4 seg[3] *64:14 0
*RES
1 *854:X seg[3] 21.1554 
*END

*D_NET *13 0.000894774
*CONN
*P seg[4] O
*I *855:X O *D sky130_fd_sc_hd__buf_1
*CAP
1 seg[4] 0.000377293
2 *855:X 0.000377293
3 seg[4] *39:10 0
4 seg[4] *64:14 0.000140189
*RES
1 *855:X seg[4] 19.6407 
*END

*D_NET *14 0.000687811
*CONN
*P seg[5] O
*I *856:X O *D sky130_fd_sc_hd__buf_1
*CAP
1 seg[5] 0.000322495
2 *856:X 0.000322495
3 seg[5] *835:RESET_B 2.06178e-05
4 seg[5] *64:14 2.22043e-05
*RES
1 *856:X seg[5] 18.1229 
*END

*D_NET *15 0.000925424
*CONN
*P seg[6] O
*I *857:X O *D sky130_fd_sc_hd__buf_1
*CAP
1 seg[6] 0.000405656
2 *857:X 0.000405656
3 seg[6] *95:8 0
4 AN[0] seg[6] 0.000114113
*RES
1 *857:X seg[6] 19.6254 
*END

*D_NET *16 0.0015761
*CONN
*I *817:D I *D sky130_fd_sc_hd__dfrtp_2
*I *732:Y O *D sky130_fd_sc_hd__inv_2
*CAP
1 *817:D 0.000478493
2 *732:Y 0.000478493
3 *817:D *704:A3 3.51442e-05
4 *817:D *709:B1 0.000284103
5 *817:D *715:B 5.7903e-06
6 *817:D *725:A2 0
7 *817:D *770:C 1.34343e-05
8 *817:D *830:RESET_B 3.65943e-05
9 *817:D *842:A 0
10 *817:D *75:56 3.89033e-05
11 *817:D *77:14 4.3588e-05
12 *817:D *77:22 2.43717e-05
13 *817:D *83:16 2.32566e-05
14 *817:D *165:48 0.000113927
*RES
1 *732:Y *817:D 37.1714 
*END

*D_NET *17 0.00107538
*CONN
*I *827:D I *D sky130_fd_sc_hd__dfrtp_1
*I *761:Y O *D sky130_fd_sc_hd__a21boi_1
*CAP
1 *827:D 0.000333728
2 *761:Y 0.000333728
3 *827:D *761:A2 9.58181e-05
4 *827:D *810:A 2.12005e-05
5 *827:D *827:RESET_B 4.46854e-05
6 *827:D *96:12 0.000152811
7 *827:D *126:63 3.39905e-05
8 *827:D *146:53 5.94205e-05
*RES
1 *761:Y *827:D 33.6 
*END

*D_NET *18 0.0143382
*CONN
*I *828:D I *D sky130_fd_sc_hd__dfrtp_1
*I *177:DIODE I *D sky130_fd_sc_hd__diode_2
*I *765:X O *D sky130_fd_sc_hd__buf_1
*CAP
1 *828:D 0.000271986
2 *177:DIODE 0
3 *765:X 0.000594525
4 *18:20 0.00340193
5 *18:10 0.00372446
6 *828:D *828:CLK 0.000175892
7 *828:D *22:20 4.7312e-05
8 *828:D *121:12 0.000102275
9 *18:10 *711:A 8.54149e-05
10 *18:10 *765:A 2.71964e-05
11 *18:10 *822:D 0.000400474
12 *18:10 *823:CLK 5.16366e-05
13 *18:10 *833:D 0.000265229
14 *18:10 *89:8 7.06793e-05
15 *18:10 *131:16 0.000371629
16 *18:10 *137:66 0.00010707
17 *18:10 *137:70 5.18646e-05
18 *18:10 *166:22 0
19 *18:20 *711:A 0.000102026
20 *18:20 *780:B1 0.000621155
21 *18:20 *22:20 5.53719e-05
22 *18:20 *27:14 0.00181449
23 *18:20 *103:30 0.00074279
24 *18:20 *118:22 0
25 *18:20 *121:12 0.000112416
26 *18:20 *129:68 0.000972521
27 *18:20 *137:66 1.09232e-05
28 *18:20 *149:24 0.000127802
29 *843:A *18:20 2.91072e-05
*RES
1 *765:X *18:10 29.7911 
2 *18:10 *18:20 37.309 
3 *18:20 *177:DIODE 13.8 
4 *18:20 *828:D 18.6929 
*END

*D_NET *19 0.00387471
*CONN
*I *829:D I *D sky130_fd_sc_hd__dfrtp_2
*I *766:Y O *D sky130_fd_sc_hd__xnor2_1
*CAP
1 *829:D 0
2 *766:Y 0.000990117
3 *19:12 0.000990117
4 *19:12 *696:C 0.000340576
5 *19:12 *704:A2 8.9799e-05
6 *19:12 *752:A_N 0
7 *19:12 *755:A 0
8 *19:12 *755:B 2.11419e-05
9 *19:12 *762:B1 9.66875e-05
10 *19:12 *779:A 0.000147362
11 *19:12 *798:A 0.000261544
12 *19:12 *130:107 7.6644e-05
13 *19:12 *132:56 6.13772e-05
14 *19:12 *135:22 0.000486808
15 *19:12 *135:60 5.49489e-05
16 *19:12 *148:22 0.000257587
*RES
1 *766:Y *19:12 42.0321 
2 *19:12 *829:D 9.3 
*END

*D_NET *20 0.0100271
*CONN
*I *830:D I *D sky130_fd_sc_hd__dfrtp_1
*I *769:X O *D sky130_fd_sc_hd__o21ba_1
*CAP
1 *830:D 0.00141673
2 *769:X 0.00135703
3 *20:12 0.00277376
4 *830:D *123:65 0.00147418
5 *830:D *168:60 2.22618e-05
6 *830:D *168:82 0.000173787
7 *20:12 *840:RESET_B 7.58841e-05
8 *20:12 *61:18 0.000542282
9 *20:12 *140:10 0.000499549
10 *20:12 *145:55 0.000928494
11 *20:12 *159:23 0.00076315
*RES
1 *769:X *20:12 47.925 
2 *20:12 *830:D 27.4161 
*END

*D_NET *21 0.00552667
*CONN
*I *831:D I *D sky130_fd_sc_hd__dfrtp_1
*I *771:X O *D sky130_fd_sc_hd__o2bb2a_1
*CAP
1 *831:D 0.00141987
2 *771:X 0.00141987
3 *831:D *694:C 5.88062e-05
4 *831:D *698:A2 0.000322316
5 *831:D *710:A2 0.000100915
6 *831:D *771:A1_N 8.45461e-05
7 *831:D *771:B2 9.60875e-05
8 *831:D *94:16 7.6644e-05
9 *831:D *95:37 0.000787734
10 *831:D *97:14 6.97337e-05
11 *831:D *110:126 0.000298817
12 *831:D *135:66 0.000759314
13 *831:D *149:24 0
14 *831:D *165:21 3.20253e-05
*RES
1 *771:X *831:D 49.3458 
*END

*D_NET *22 0.0100289
*CONN
*I *832:D I *D sky130_fd_sc_hd__dfrtp_1
*I *773:Y O *D sky130_fd_sc_hd__nor2_1
*CAP
1 *832:D 0
2 *773:Y 0.000422696
3 *22:20 0.00154885
4 *22:10 0.00197155
5 *22:10 *71:18 6.90895e-05
6 *22:10 *83:16 0.000851901
7 *22:10 *121:12 0.000458946
8 *22:10 *134:25 9.85571e-05
9 *22:20 *716:A2_N 2.16719e-05
10 *22:20 *739:A_N 0.000129038
11 *22:20 *794:A 4.58194e-05
12 *22:20 *797:A 0.000102207
13 *22:20 *832:CLK 9.86146e-05
14 *22:20 *71:18 0.000106512
15 *22:20 *82:141 6.3577e-05
16 *22:20 *102:12 0.00160363
17 *22:20 *103:30 0.000319603
18 *22:20 *121:12 0.000287453
19 *22:20 *128:18 0.00150853
20 *22:20 *128:22 0.000218026
21 *22:20 *130:14 0
22 *22:20 *130:18 0
23 *828:D *22:20 4.7312e-05
24 *18:20 *22:20 5.53719e-05
*RES
1 *773:Y *22:10 27.4696 
2 *22:10 *22:20 47.4554 
3 *22:20 *832:D 9.3 
*END

*D_NET *23 0.00220496
*CONN
*I *833:D I *D sky130_fd_sc_hd__dfrtp_2
*I *774:X O *D sky130_fd_sc_hd__xor2_1
*CAP
1 *833:D 0.000389203
2 *774:X 0.000389203
3 *833:D *711:A 0.000745428
4 *833:D *774:B 4.58591e-05
5 *833:D *131:16 0.000370041
6 *18:10 *833:D 0.000265229
*RES
1 *774:X *833:D 39.5643 
*END

*D_NET *24 0.00615862
*CONN
*I *834:D I *D sky130_fd_sc_hd__dfrtp_1
*I *777:Y O *D sky130_fd_sc_hd__nor2_1
*CAP
1 *834:D 2.17799e-05
2 *777:Y 0.00111992
3 *24:16 0.0011417
4 *834:D *749:A 2.89114e-05
5 *834:D *128:115 6.05161e-06
6 *834:D *153:33 1.21258e-05
7 *24:16 *693:A 0
8 *24:16 *714:A1 0.000555466
9 *24:16 *767:A 0
10 *24:16 *820:RESET_B 0.000460339
11 *24:16 *834:RESET_B 7.08626e-05
12 *24:16 *840:CLK 1.80451e-05
13 *24:16 *43:14 0.000453255
14 *24:16 *43:38 0.000109087
15 *24:16 *91:40 0
16 *24:16 *116:59 0.000113686
17 *24:16 *126:16 0.00116296
18 *24:16 *126:32 0.000720901
19 *24:16 *128:115 0.000141969
20 *24:16 *136:32 0
21 *24:16 *163:20 2.15591e-05
*RES
1 *777:Y *24:16 45.8357 
2 *24:16 *834:D 14.3357 
*END

*D_NET *25 0.00137358
*CONN
*I *835:D I *D sky130_fd_sc_hd__dfrtp_2
*I *778:X O *D sky130_fd_sc_hd__xor2_1
*CAP
1 *835:D 0.000314433
2 *778:X 0.000314433
3 *835:D *719:A 7.04292e-05
4 *835:D *794:A 0
5 *835:D *38:18 0.000546114
6 *835:D *66:10 0
7 *835:D *169:16 9.75679e-05
8 *835:D *175:12 3.06035e-05
*RES
1 *778:X *835:D 35.6536 
*END

*D_NET *26 0.00556663
*CONN
*I *836:D I *D sky130_fd_sc_hd__dfrtp_1
*I *780:X O *D sky130_fd_sc_hd__o2bb2a_1
*CAP
1 *836:D 0
2 *780:X 0.0011218
3 *26:18 0.0011218
4 *26:18 *692:A 1.69115e-05
5 *26:18 *692:D 1.35486e-05
6 *26:18 *699:C_N 0.000136951
7 *26:18 *704:A1 0.000421376
8 *26:18 *715:C 4.11218e-05
9 *26:18 *762:B1 0.000224805
10 *26:18 *790:A 0.000350514
11 *26:18 *836:CLK 0.000215469
12 *26:18 *836:RESET_B 2.58856e-05
13 *26:18 *70:16 0.000815926
14 *26:18 *84:10 0.000195391
15 *26:18 *118:22 2.22043e-05
16 *26:18 *149:8 0.000167832
17 *26:18 *149:24 9.15621e-06
18 *26:18 *155:14 6.05161e-06
19 *26:18 *166:55 0.000125724
20 *26:18 *168:82 7.83414e-05
21 *26:18 *172:16 0.000455813
*RES
1 *780:X *26:18 48.0857 
2 *26:18 *836:D 9.3 
*END

*D_NET *27 0.00673041
*CONN
*I *818:D I *D sky130_fd_sc_hd__dfrtp_2
*I *736:X O *D sky130_fd_sc_hd__clkbuf_1
*CAP
1 *818:D 0
2 *736:X 0.00117893
3 *27:14 0.00117893
4 *27:14 *692:D 9.08437e-05
5 *27:14 *780:B1 0.00021961
6 *27:14 *815:RESET_B 0.000217494
7 *27:14 *127:12 0
8 *27:14 *137:64 6.76246e-05
9 *27:14 *137:66 4.84319e-05
10 *27:14 *143:26 5.00099e-05
11 *27:14 *143:90 9.35114e-06
12 *27:14 *149:24 0.000105594
13 *27:14 *150:10 0.00174911
14 *18:20 *27:14 0.00181449
*RES
1 *736:X *27:14 46.6393 
2 *27:14 *818:D 13.8 
*END

*D_NET *28 0.00784847
*CONN
*I *837:D I *D sky130_fd_sc_hd__dfrtp_1
*I *712:Y O *D sky130_fd_sc_hd__nor2_1
*CAP
1 *837:D 0.000820557
2 *712:Y 0.000925042
3 *28:12 0.0017456
4 *837:D *98:16 2.51343e-06
5 *28:12 *29:24 0
6 *28:12 *33:16 0.000475903
7 *28:12 *76:12 0.00137316
8 *28:12 *106:26 0.000277516
9 *28:12 *106:50 0.000451359
10 *28:12 *142:58 0.000667341
11 *28:12 *143:34 1.27625e-05
12 *28:12 *164:85 0.000832317
13 *28:12 *175:10 0.000264407
*RES
1 *712:Y *28:12 49.4786 
2 *28:12 *837:D 19.6929 
*END

*D_NET *29 0.0153512
*CONN
*I *838:D I *D sky130_fd_sc_hd__dfrtp_1
*I *714:X O *D sky130_fd_sc_hd__o21ba_1
*CAP
1 *838:D 0
2 *714:X 0.00192564
3 *29:24 0.000903086
4 *29:18 0.00160309
5 *29:14 0.00262565
6 *29:14 *715:A 0.000427945
7 *29:14 *754:B 5.33005e-05
8 *29:14 *830:CLK 9.67754e-05
9 *29:14 *830:RESET_B 0.000101688
10 *29:14 *91:22 9.56112e-05
11 *29:14 *168:60 0.000980189
12 *29:14 *168:82 0.000180577
13 *29:18 *715:C 0.000349732
14 *29:18 *168:82 0.000123865
15 *29:24 *838:CLK 4.00679e-05
16 *29:24 *33:16 0
17 *29:24 *33:18 0.000230649
18 *29:24 *47:16 0.00269464
19 *29:24 *76:12 0
20 *29:24 *131:20 0
21 *29:24 *131:26 0.0029187
22 *29:24 *142:58 0
23 *28:12 *29:24 0
*RES
1 *714:X *29:14 42.9964 
2 *29:14 *29:18 13.25 
3 *29:18 *29:24 48.7143 
4 *29:24 *838:D 9.3 
*END

*D_NET *30 0.00163288
*CONN
*I *839:D I *D sky130_fd_sc_hd__dfrtp_1
*I *716:X O *D sky130_fd_sc_hd__o2bb2a_1
*CAP
1 *839:D 0.000575427
2 *716:X 0.000575427
3 *839:D *716:A1_N 4.5534e-05
4 *839:D *821:RESET_B 0.000103057
5 *839:D *826:RESET_B 2.72545e-05
6 *839:D *831:RESET_B 3.14078e-05
7 *839:D *839:CLK 7.24613e-05
8 *839:D *128:54 0.000196262
9 *839:D *159:10 6.05161e-06
*RES
1 *716:X *839:D 38.2786 
*END

*D_NET *31 0.0117171
*CONN
*I *840:D I *D sky130_fd_sc_hd__dfrtp_1
*I *720:X O *D sky130_fd_sc_hd__buf_1
*CAP
1 *840:D 0.00136886
2 *720:X 0.000528235
3 *31:20 0.00230174
4 *31:12 0.00146111
5 *840:D *693:B 5.32982e-05
6 *840:D *785:A 9.80904e-05
7 *840:D *798:A 0.000137983
8 *840:D *812:A 0.000266859
9 *840:D *55:14 6.08369e-05
10 *840:D *128:115 9.58126e-05
11 *840:D *133:30 0.000606406
12 *31:12 *725:D1 0.00025515
13 *31:12 *106:50 0.000667524
14 *31:12 *107:18 0.000181778
15 *31:12 *142:45 0
16 *31:12 *143:34 0.000146254
17 *31:12 *144:87 0.000369104
18 *31:12 *164:85 0.00118295
19 *31:20 *693:B 0.000160903
20 *31:20 *715:C 2.92927e-05
21 *31:20 *725:A2 1.0033e-05
22 *31:20 *725:D1 0.000109065
23 *31:20 *842:A 0.000272321
24 *31:20 *106:16 0.00127014
25 *31:20 *164:85 8.33512e-05
*RES
1 *720:X *31:12 33.3804 
2 *31:12 *31:20 27.75 
3 *31:20 *840:D 32.6304 
*END

*D_NET *32 0.00715085
*CONN
*I *841:D I *D sky130_fd_sc_hd__dfrtp_2
*I *721:Y O *D sky130_fd_sc_hd__xnor2_1
*CAP
1 *841:D 2.01984e-05
2 *721:Y 0.00197999
3 *32:10 0.00200019
4 *841:D *690:C 2.89114e-05
5 *841:D *841:RESET_B 2.59355e-05
6 *32:10 *702:A_N 0.000236226
7 *32:10 *718:A2 0.000342068
8 *32:10 *755:A 9.93203e-05
9 *32:10 *767:B 0.000325064
10 *32:10 *767:C 0.000484016
11 *32:10 *772:A2 0.000702573
12 *32:10 *832:RESET_B 6.51909e-05
13 *32:10 *81:51 6.66115e-05
14 *32:10 *95:75 0.000754055
15 *32:10 *130:141 2.04965e-05
*RES
1 *721:Y *32:10 47.2643 
2 *32:10 *841:D 14.3357 
*END

*D_NET *33 0.0176244
*CONN
*I *819:D I *D sky130_fd_sc_hd__dfrtp_2
*I *737:Y O *D sky130_fd_sc_hd__xnor2_1
*CAP
1 *819:D 0.000649486
2 *737:Y 0.000962915
3 *33:18 0.00170913
4 *33:16 0.00202256
5 *819:D *749:B 0.00116686
6 *819:D *779:A 7.41808e-05
7 *819:D *779:C 9.84107e-05
8 *819:D *127:12 0.00116638
9 *33:16 *694:D 0
10 *33:16 *731:A2 0.000287543
11 *33:16 *822:D 2.93632e-05
12 *33:16 *82:20 0.000353181
13 *33:16 *94:16 0.000525974
14 *33:16 *99:24 2.38501e-05
15 *33:16 *131:16 5.56577e-05
16 *33:18 *131:20 0
17 *33:18 *131:26 0.00420734
18 *33:18 *168:84 0.00358499
19 *28:12 *33:16 0.000475903
20 *29:24 *33:16 0
21 *29:24 *33:18 0.000230649
*RES
1 *737:Y *33:16 41.6036 
2 *33:16 *33:18 58.4107 
3 *33:18 *819:D 32.9607 
*END

*D_NET *34 0.00595943
*CONN
*I *820:D I *D sky130_fd_sc_hd__dfrtp_1
*I *740:X O *D sky130_fd_sc_hd__clkbuf_1
*CAP
1 *820:D 0
2 *740:X 0.00175674
3 *34:14 0.00175674
4 *34:14 *814:D 2.51343e-06
5 *34:14 *818:RESET_B 0.000580256
6 *34:14 *820:RESET_B 2.13481e-06
7 *34:14 *837:RESET_B 5.33005e-05
8 *34:14 *81:26 0.000640405
9 *34:14 *89:42 2.99773e-05
10 *34:14 *133:10 2.12933e-05
11 *34:14 *142:136 0.000124525
12 *34:14 *166:55 2.89016e-05
13 *34:14 *173:27 0.000962643
*RES
1 *740:X *34:14 45.1571 
2 *34:14 *820:D 9.3 
*END

*D_NET *35 0.00201857
*CONN
*I *821:D I *D sky130_fd_sc_hd__dfrtp_2
*I *743:Y O *D sky130_fd_sc_hd__nor2_1
*CAP
1 *821:D 0.000822639
2 *743:Y 0.000822639
3 *821:D *821:CLK 0.000309389
4 *821:D *104:22 7.20217e-06
5 *821:D *105:14 5.66971e-05
*RES
1 *743:Y *821:D 32.6893 
*END

*D_NET *36 0.00325564
*CONN
*I *822:D I *D sky130_fd_sc_hd__dfrtp_2
*I *746:Y O *D sky130_fd_sc_hd__nor2_1
*CAP
1 *822:D 0.000561489
2 *746:Y 0.000561489
3 *822:D *712:B 0.000144038
4 *822:D *823:CLK 0.000116808
5 *822:D *838:RESET_B 5.52238e-05
6 *822:D *82:20 0.000160374
7 *822:D *89:8 3.17148e-05
8 *822:D *89:18 5.33005e-05
9 *822:D *99:24 0.000113415
10 *822:D *107:18 3.08664e-05
11 *822:D *137:70 3.47641e-06
12 *822:D *165:10 2.89016e-05
13 *822:D *175:12 0.000964704
14 *18:10 *822:D 0.000400474
15 *33:16 *822:D 2.93632e-05
*RES
1 *746:Y *822:D 44.7786 
*END

*D_NET *37 0.00422747
*CONN
*I *823:D I *D sky130_fd_sc_hd__dfrtp_4
*I *747:X O *D sky130_fd_sc_hd__xor2_1
*CAP
1 *823:D 0.00044211
2 *747:X 0.00044211
3 *823:D *747:A 0.00022191
4 *823:D *765:A 7.92229e-06
5 *823:D *774:A 0.000126509
6 *823:D *787:A 0.000102168
7 *823:D *794:A 9.59846e-05
8 *823:D *823:RESET_B 0.000499126
9 *823:D *45:32 3.08664e-05
10 *823:D *106:58 0.00225876
*RES
1 *747:X *823:D 41.8679 
*END

*D_NET *38 0.0124551
*CONN
*I *824:D I *D sky130_fd_sc_hd__dfrtp_1
*I *753:X O *D sky130_fd_sc_hd__buf_1
*CAP
1 *824:D 0.000440133
2 *753:X 0.00286926
3 *38:18 0.0033094
4 *824:D *824:CLK 4.87953e-05
5 *824:D *43:38 0.000314635
6 *824:D *77:30 0.00025376
7 *824:D *77:37 6.76057e-05
8 *824:D *83:16 0
9 *824:D *86:20 6.05023e-05
10 *824:D *132:81 0.000133361
11 *824:D *140:30 4.58976e-05
12 *824:D *151:14 1.02969e-05
13 *824:D *159:39 0.000118136
14 *824:D *166:71 0.00058836
15 *38:18 *688:A 0.000107789
16 *38:18 *719:A 5.56776e-05
17 *38:18 *738:A1 0
18 *38:18 *753:A 3.2921e-05
19 *38:18 *821:CLK 0.000204325
20 *38:18 *831:RESET_B 0.000282229
21 *38:18 *832:RESET_B 0.00192682
22 *38:18 *50:24 0.000113347
23 *38:18 *61:18 0
24 *38:18 *93:26 0.000111243
25 *38:18 *138:8 4.84826e-05
26 *38:18 *138:10 0.000122417
27 *38:18 *138:12 0.000188067
28 *38:18 *138:63 5.83677e-05
29 *38:18 *152:50 0
30 *38:18 *159:10 0.000160421
31 *38:18 *159:23 0.000236727
32 *835:D *38:18 0.000546114
*RES
1 *753:X *38:18 46.6485 
2 *38:18 *824:D 31.7132 
*END

*D_NET *39 0.0137054
*CONN
*I *825:D I *D sky130_fd_sc_hd__dfrtp_4
*I *757:X O *D sky130_fd_sc_hd__buf_1
*CAP
1 *825:D 0.000718746
2 *757:X 0.00150708
3 *39:10 0.00403203
4 *39:8 0.00482036
5 *825:D *825:RESET_B 0.000121339
6 *825:D *161:46 3.4061e-05
7 *825:D *168:16 0.000175274
8 *39:8 *176:14 0.00171503
9 *39:10 *690:D 0
10 *39:10 *717:A 0
11 *39:10 *835:RESET_B 0
12 *39:10 *852:A 0
13 *39:10 *64:14 0.000521736
14 *39:10 *169:71 0
15 seg[3] *39:10 5.97093e-05
16 seg[4] *39:10 0
*RES
1 *757:X *39:8 35.2821 
2 *39:8 *39:10 67.5179 
3 *39:10 *825:D 27.0679 
*END

*D_NET *40 0.0061673
*CONN
*I *826:D I *D sky130_fd_sc_hd__dfrtp_2
*I *758:Y O *D sky130_fd_sc_hd__xnor2_1
*CAP
1 *826:D 0
2 *758:Y 0.000972355
3 *40:14 0.000972355
4 *40:14 *813:CLK 0.000140856
5 *40:14 *826:CLK 0.000251981
6 *40:14 *833:RESET_B 0
7 *40:14 *104:22 0.00064246
8 *40:14 *105:14 0.000902091
9 *40:14 *116:59 0.000450682
10 *40:14 *126:63 0.000167279
11 *40:14 *130:65 0.001099
12 *40:14 *138:65 0.000542305
13 *40:14 *169:16 2.59355e-05
*RES
1 *758:Y *40:14 46.7643 
2 *40:14 *826:D 9.3 
*END

*D_NET *41 0.00253561
*CONN
*I *813:RESET_B I *D sky130_fd_sc_hd__dfrtp_4
*I *783:Y O *D sky130_fd_sc_hd__inv_2
*CAP
1 *813:RESET_B 0.000630601
2 *783:Y 0.000630601
3 *813:RESET_B *738:A1 5.94089e-05
4 *813:RESET_B *822:RESET_B 4.34627e-05
5 *813:RESET_B *49:8 0.000182592
6 *813:RESET_B *50:24 7.59606e-06
7 *813:RESET_B *90:29 1.93337e-05
8 *813:RESET_B *118:22 0
9 *813:RESET_B *136:14 0.00031632
10 *813:RESET_B *136:32 0.000121842
11 *813:RESET_B *151:14 0.000523856
*RES
1 *783:Y *813:RESET_B 34.3742 
*END

*D_NET *42 0.00502563
*CONN
*I *814:RESET_B I *D sky130_fd_sc_hd__dfrtp_4
*I *784:Y O *D sky130_fd_sc_hd__inv_2
*CAP
1 *814:RESET_B 0.000759364
2 *784:Y 0.000759364
3 *814:RESET_B *780:B1 9.16325e-06
4 *814:RESET_B *784:A 0.00122868
5 *814:RESET_B *820:RESET_B 0.00021434
6 *814:RESET_B *129:70 0.000257619
7 *814:RESET_B *129:102 5.49544e-05
8 *814:RESET_B *142:10 0.000280802
9 *814:RESET_B *142:14 0.00101084
10 *814:RESET_B *142:130 4.17433e-05
11 *814:RESET_B *155:14 0.000300617
12 *814:RESET_B *173:27 0.000108137
*RES
1 *784:Y *814:RESET_B 39.8089 
*END

*D_NET *43 0.0133742
*CONN
*I *815:RESET_B I *D sky130_fd_sc_hd__dfrtp_4
*I *785:Y O *D sky130_fd_sc_hd__inv_2
*CAP
1 *815:RESET_B 0.00148877
2 *785:Y 0.000580189
3 *43:38 0.00290141
4 *43:14 0.00199283
5 *815:RESET_B *687:C 6.11832e-05
6 *815:RESET_B *688:D 0.000128225
7 *815:RESET_B *708:A 1.01403e-05
8 *815:RESET_B *711:B 0.000185446
9 *815:RESET_B *728:A 0.000690962
10 *815:RESET_B *769:A1 0.000335114
11 *815:RESET_B *45:32 0.000111243
12 *815:RESET_B *141:14 1.99212e-05
13 *815:RESET_B *141:37 7.44945e-07
14 *815:RESET_B *143:26 0.000115534
15 *815:RESET_B *145:55 5.26953e-05
16 *815:RESET_B *158:20 0.000374579
17 *43:14 *767:A 0
18 *43:14 *840:CLK 5.80706e-06
19 *43:14 *91:40 0
20 *43:14 *135:14 0.000430577
21 *43:38 *688:A 4.22135e-06
22 *43:38 *50:24 0.000436647
23 *43:38 *55:24 0.000136682
24 *43:38 *90:29 0.0012589
25 *43:38 *116:59 0
26 *43:38 *126:32 5.83304e-05
27 *43:38 *136:14 0.000302049
28 *43:38 *144:66 8.80158e-05
29 *43:38 *151:14 7.20556e-05
30 *43:38 *159:39 7.6644e-05
31 *43:38 *166:71 0.000360842
32 *824:D *43:38 0.000314635
33 *24:16 *43:14 0.000453255
34 *24:16 *43:38 0.000109087
35 *27:14 *815:RESET_B 0.000217494
*RES
1 *785:Y *43:14 32.925 
2 *43:14 *43:38 46.5893 
3 *43:38 *815:RESET_B 34.6161 
*END

*D_NET *44 0.00402742
*CONN
*I *816:RESET_B I *D sky130_fd_sc_hd__dfrtp_4
*I *786:Y O *D sky130_fd_sc_hd__inv_2
*CAP
1 *816:RESET_B 0.000990647
2 *786:Y 0.000990647
3 *816:RESET_B *135:14 0.000718513
4 *816:RESET_B *141:79 0.000327165
5 *816:RESET_B *141:92 0.000323528
6 *816:RESET_B *142:168 0.000488576
7 *816:RESET_B *161:21 8.89289e-05
8 *816:RESET_B *172:26 9.94194e-05
*RES
1 *786:Y *816:RESET_B 36.0857 
*END

*D_NET *45 0.0130901
*CONN
*I *817:RESET_B I *D sky130_fd_sc_hd__dfrtp_2
*I *787:Y O *D sky130_fd_sc_hd__inv_2
*CAP
1 *817:RESET_B 0.000625093
2 *787:Y 0.0034884
3 *45:32 0.0041135
4 *817:RESET_B *694:C 0
5 *817:RESET_B *704:A3 0
6 *817:RESET_B *725:A1 0.00052537
7 *817:RESET_B *725:A2 0.000192335
8 *817:RESET_B *142:20 0.000100831
9 *817:RESET_B *143:55 0.000353095
10 *45:32 *734:A 0.000116105
11 *45:32 *737:A 0
12 *45:32 *758:B 0.000826611
13 *45:32 *760:A3 1.79373e-05
14 *45:32 *768:A 3.61576e-05
15 *45:32 *771:A1_N 0
16 *45:32 *823:RESET_B 5.49544e-05
17 *45:32 *80:14 0.000173356
18 *45:32 *92:38 2.63501e-05
19 *45:32 *104:22 0
20 *45:32 *114:26 0.00187395
21 *45:32 *122:10 0.000134273
22 *45:32 *149:24 0.000289641
23 *815:RESET_B *45:32 0.000111243
24 *823:D *45:32 3.08664e-05
25 *843:A *45:32 0
*RES
1 *787:Y *45:32 41.973 
2 *45:32 *817:RESET_B 19.0714 
*END

*D_NET *46 0.00527387
*CONN
*I *818:RESET_B I *D sky130_fd_sc_hd__dfrtp_2
*I *788:Y O *D sky130_fd_sc_hd__inv_2
*CAP
1 *818:RESET_B 0.00101914
2 *788:Y 0.00101914
3 *818:RESET_B *699:B 7.83659e-05
4 *818:RESET_B *733:B 2.70899e-05
5 *818:RESET_B *762:A1 7.35988e-05
6 *818:RESET_B *768:A 0.000300875
7 *818:RESET_B *769:A1 0.000205863
8 *818:RESET_B *824:RESET_B 0.000342459
9 *818:RESET_B *844:A 5.52238e-05
10 *818:RESET_B *52:12 5.41797e-06
11 *818:RESET_B *78:22 0.000264841
12 *818:RESET_B *89:18 0.000212414
13 *818:RESET_B *92:38 0.000271405
14 *818:RESET_B *116:20 0.000100142
15 *818:RESET_B *116:59 0.000183225
16 *818:RESET_B *126:32 0
17 *818:RESET_B *129:102 0.000194343
18 *818:RESET_B *133:10 6.057e-07
19 *818:RESET_B *142:136 3.93335e-05
20 *818:RESET_B *156:18 5.49489e-05
21 *818:RESET_B *156:56 0.000245182
22 *34:14 *818:RESET_B 0.000580256
*RES
1 *788:Y *818:RESET_B 46.7018 
*END

*D_NET *47 0.0144726
*CONN
*I *819:RESET_B I *D sky130_fd_sc_hd__dfrtp_2
*I *789:Y O *D sky130_fd_sc_hd__inv_2
*CAP
1 *819:RESET_B 0.00182255
2 *789:Y 0.000434184
3 *47:16 0.00247339
4 *47:12 0.00108503
5 *819:RESET_B *693:C 0.000164985
6 *819:RESET_B *700:B 0
7 *819:RESET_B *755:A 0.000178026
8 *819:RESET_B *755:B 0
9 *819:RESET_B *779:A 0
10 *819:RESET_B *92:38 0
11 *819:RESET_B *148:22 2.41406e-05
12 *819:RESET_B *162:12 0.000265033
13 *819:RESET_B *165:48 1.462e-05
14 *47:12 *694:A 3.42426e-05
15 *47:12 *694:C 0.000111112
16 *47:12 *698:A2 3.97677e-05
17 *47:12 *742:A 0.000228922
18 *47:12 *789:A 1.07719e-05
19 *47:12 *76:12 0.000387796
20 *47:12 *131:24 0
21 *47:12 *164:85 0.00047398
22 *47:16 *58:10 0.000218545
23 *47:16 *76:12 0
24 *47:16 *78:10 0.00320617
25 *47:16 *131:26 0.000576169
26 *5:13 *819:RESET_B 2.85021e-05
27 *29:24 *47:16 0.00269464
*RES
1 *789:Y *47:12 24.5321 
2 *47:12 *47:16 48.9189 
3 *47:16 *819:RESET_B 13.8901 
*END

*D_NET *48 0.0043371
*CONN
*I *820:RESET_B I *D sky130_fd_sc_hd__dfrtp_1
*I *790:Y O *D sky130_fd_sc_hd__inv_2
*CAP
1 *820:RESET_B 0.00139276
2 *790:Y 0.00139276
3 *820:RESET_B *714:A1 9.6788e-05
4 *820:RESET_B *790:A 6.05161e-06
5 *820:RESET_B *814:D 0.000344413
6 *820:RESET_B *89:42 3.9968e-05
7 *820:RESET_B *142:130 0
8 *820:RESET_B *163:20 0.000142618
9 *820:RESET_B *173:27 0.000244923
10 *814:RESET_B *820:RESET_B 0.00021434
11 *24:16 *820:RESET_B 0.000460339
12 *34:14 *820:RESET_B 2.13481e-06
*RES
1 *790:Y *820:RESET_B 38.175 
*END

*D_NET *49 0.0101052
*CONN
*I *821:RESET_B I *D sky130_fd_sc_hd__dfrtp_2
*I *791:Y O *D sky130_fd_sc_hd__inv_2
*CAP
1 *821:RESET_B 0.00116102
2 *791:Y 0.00108822
3 *49:8 0.00224924
4 *821:RESET_B *716:A1_N 0.000433184
5 *821:RESET_B *826:RESET_B 0
6 *821:RESET_B *119:29 0
7 *821:RESET_B *120:12 0.000361371
8 *821:RESET_B *128:54 0.000199757
9 *821:RESET_B *128:56 1.46624e-05
10 *821:RESET_B *141:79 0.00069857
11 *821:RESET_B *169:16 0.00142699
12 *821:RESET_B *169:54 0.00121514
13 *49:8 *808:A 2.14658e-05
14 *49:8 *50:24 5.33005e-05
15 *49:8 *52:12 0.000150598
16 *49:8 *89:42 9.77072e-05
17 *49:8 *128:18 0.000116019
18 *49:8 *129:109 0.000181418
19 *49:8 *129:116 0.000199146
20 *49:8 *129:129 8.35928e-05
21 *49:8 *130:101 6.81704e-05
22 *813:RESET_B *49:8 0.000182592
23 *839:D *821:RESET_B 0.000103057
*RES
1 *791:Y *49:8 32.8179 
2 *49:8 *821:RESET_B 41.0536 
*END

*D_NET *50 0.00891006
*CONN
*I *822:RESET_B I *D sky130_fd_sc_hd__dfrtp_2
*I *792:Y O *D sky130_fd_sc_hd__inv_2
*CAP
1 *822:RESET_B 0.000965108
2 *792:Y 0.000601444
3 *50:24 0.00156655
4 *822:RESET_B *719:A 0.000479461
5 *822:RESET_B *778:A 3.09531e-05
6 *822:RESET_B *838:RESET_B 0.00130504
7 *822:RESET_B *90:29 0.00103176
8 *822:RESET_B *122:29 0.00125549
9 *822:RESET_B *151:14 0.000112043
10 *822:RESET_B *154:27 0.000130954
11 *822:RESET_B *164:32 0.000233672
12 *822:RESET_B *165:10 6.26774e-05
13 *50:24 *688:A 0.000159946
14 *50:24 *738:A1 5.77477e-05
15 *50:24 *55:24 3.8991e-05
16 *50:24 *118:22 2.75989e-05
17 *50:24 *166:71 0.000196269
18 *813:RESET_B *822:RESET_B 4.34627e-05
19 *813:RESET_B *50:24 7.59606e-06
20 *38:18 *50:24 0.000113347
21 *43:38 *50:24 0.000436647
22 *49:8 *50:24 5.33005e-05
*RES
1 *792:Y *50:24 34.4281 
2 *50:24 *822:RESET_B 37.3036 
*END

*D_NET *51 0.00353475
*CONN
*I *823:RESET_B I *D sky130_fd_sc_hd__dfrtp_4
*I *794:Y O *D sky130_fd_sc_hd__inv_2
*CAP
1 *823:RESET_B 0.000452434
2 *794:Y 0.000452434
3 *823:RESET_B *765:A 0.00151169
4 *823:RESET_B *774:A 0.00022887
5 *823:RESET_B *787:A 0.000185197
6 *823:RESET_B *80:24 9.35501e-05
7 *823:RESET_B *106:58 5.64982e-05
8 *823:D *823:RESET_B 0.000499126
9 *45:32 *823:RESET_B 5.49544e-05
*RES
1 *794:Y *823:RESET_B 27.4339 
*END

*D_NET *52 0.00743719
*CONN
*I *824:RESET_B I *D sky130_fd_sc_hd__dfrtp_1
*I *795:Y O *D sky130_fd_sc_hd__inv_2
*CAP
1 *824:RESET_B 0.000508531
2 *795:Y 0.00168822
3 *52:12 0.00219675
4 *824:RESET_B *693:A 0.000160036
5 *824:RESET_B *116:20 0.00016198
6 *824:RESET_B *116:59 0.000159016
7 *824:RESET_B *126:16 0
8 *824:RESET_B *133:30 0.000532848
9 *824:RESET_B *156:56 0.000694606
10 *52:12 *714:A1 0.000178425
11 *52:12 *808:A 2.59355e-05
12 *52:12 *116:59 2.72935e-05
13 *52:12 *128:18 0.000113043
14 *52:12 *129:109 0.000106992
15 *52:12 *129:116 0.000206349
16 *52:12 *129:129 8.85532e-05
17 *52:12 *130:101 9.0145e-05
18 *818:RESET_B *824:RESET_B 0.000342459
19 *818:RESET_B *52:12 5.41797e-06
20 *49:8 *52:12 0.000150598
*RES
1 *795:Y *52:12 34.4518 
2 *52:12 *824:RESET_B 20.5625 
*END

*D_NET *53 0.00972527
*CONN
*I *825:RESET_B I *D sky130_fd_sc_hd__dfrtp_4
*I *796:Y O *D sky130_fd_sc_hd__inv_2
*CAP
1 *825:RESET_B 0.000633653
2 *796:Y 0.00116881
3 *53:12 0.00180246
4 *825:RESET_B *749:A 5.49544e-05
5 *825:RESET_B *749:B 0.000189522
6 *825:RESET_B *825:CLK 0.00022266
7 *825:RESET_B *108:14 1.95435e-05
8 *825:RESET_B *161:46 0.00195073
9 *53:12 *715:C 3.45337e-05
10 *53:12 *796:A 0.000156822
11 *53:12 *99:14 0.000101545
12 *53:12 *109:14 0.000271886
13 *53:12 *116:20 0.000630034
14 *53:12 *135:14 0.000148911
15 *53:12 *139:8 0.000221641
16 *53:12 *148:16 3.9745e-05
17 *53:12 *159:39 6.12434e-05
18 *53:12 *162:12 0.000292847
19 *53:12 *163:26 0.000107612
20 *53:12 *167:58 1.37292e-05
21 *53:12 *168:82 0.000512894
22 *53:12 *172:26 0.000968159
23 *825:D *825:RESET_B 0.000121339
*RES
1 *796:Y *53:12 47.3 
2 *53:12 *825:RESET_B 20.3304 
*END

*D_NET *54 0.0026768
*CONN
*I *826:RESET_B I *D sky130_fd_sc_hd__dfrtp_2
*I *797:Y O *D sky130_fd_sc_hd__inv_2
*CAP
1 *826:RESET_B 0.000431188
2 *797:Y 0.000431188
3 *826:RESET_B *119:29 0.0010958
4 *826:RESET_B *128:54 0.000691369
5 *821:RESET_B *826:RESET_B 0
6 *839:D *826:RESET_B 2.72545e-05
*RES
1 *797:Y *826:RESET_B 32.3179 
*END

*D_NET *55 0.0130453
*CONN
*I *827:RESET_B I *D sky130_fd_sc_hd__dfrtp_1
*I *798:Y O *D sky130_fd_sc_hd__inv_2
*CAP
1 *827:RESET_B 0.00068619
2 *798:Y 0.00164013
3 *55:24 0.00122635
4 *55:14 0.00218028
5 *827:RESET_B *126:63 0.000563494
6 *827:RESET_B *136:14 0.000930365
7 *827:RESET_B *151:14 0.00155153
8 *55:14 *798:A 3.14048e-05
9 *55:14 *818:CLK 5.49489e-05
10 *55:14 *110:16 2.06112e-05
11 *55:14 *110:58 0
12 *55:14 *119:21 0.000558982
13 *55:14 *139:10 0.000200958
14 *55:14 *139:12 0.000257185
15 *55:14 *139:76 0.00013687
16 *55:14 *148:22 0.000425614
17 *55:14 *148:56 0.000385355
18 *55:24 *688:A 0.000195856
19 *55:24 *829:RESET_B 0.000659031
20 *55:24 *144:66 0.00013381
21 *55:24 *152:50 0.000148196
22 *55:24 *152:67 0
23 *55:24 *166:71 0.000776941
24 *827:D *827:RESET_B 4.46854e-05
25 *840:D *55:14 6.08369e-05
26 *43:38 *55:24 0.000136682
27 *50:24 *55:24 3.8991e-05
*RES
1 *798:Y *55:14 48.175 
2 *55:14 *55:24 29.875 
3 *55:24 *827:RESET_B 25.8482 
*END

*D_NET *56 0.00329331
*CONN
*I *828:RESET_B I *D sky130_fd_sc_hd__dfrtp_1
*I *799:Y O *D sky130_fd_sc_hd__inv_2
*CAP
1 *828:RESET_B 0
2 *799:Y 0.0011328
3 *56:18 0.0011328
4 *56:18 *690:A 4.28365e-05
5 *56:18 *690:C 7.6644e-05
6 *56:18 *707:B 2.49484e-05
7 *56:18 *717:A 0
8 *56:18 *717:B 0.000429787
9 *56:18 *738:A3 0.000214409
10 *56:18 *759:A 3.79877e-06
11 *56:18 *772:A1 0.000115369
12 *56:18 *773:B 9.66458e-05
13 *56:18 *799:A 2.32622e-05
14 *56:18 *169:71 0
*RES
1 *799:Y *56:18 46.0857 
2 *56:18 *828:RESET_B 4.5 
*END

*D_NET *57 0.0112156
*CONN
*I *829:RESET_B I *D sky130_fd_sc_hd__dfrtp_2
*I *800:Y O *D sky130_fd_sc_hd__inv_2
*CAP
1 *829:RESET_B 0.00172022
2 *800:Y 0.00107787
3 *57:8 0.00279808
4 *829:RESET_B *713:A 0
5 *829:RESET_B *785:A 0.000561016
6 *829:RESET_B *825:CLK 0
7 *829:RESET_B *69:12 0.000146547
8 *829:RESET_B *81:51 1.50689e-05
9 *829:RESET_B *90:12 0.000250774
10 *829:RESET_B *129:129 0.000904621
11 *829:RESET_B *141:100 0.000658711
12 *829:RESET_B *148:10 0.000137018
13 *829:RESET_B *151:18 0
14 *829:RESET_B *152:67 4.68867e-05
15 *829:RESET_B *153:33 0.000356427
16 *829:RESET_B *166:71 0.000451626
17 *57:8 *854:A 0.00143168
18 *55:24 *829:RESET_B 0.000659031
*RES
1 *800:Y *57:8 27.8893 
2 *57:8 *829:RESET_B 48.9732 
*END

*D_NET *58 0.00930338
*CONN
*I *830:RESET_B I *D sky130_fd_sc_hd__dfrtp_1
*I *801:Y O *D sky130_fd_sc_hd__inv_2
*CAP
1 *830:RESET_B 0.000631017
2 *801:Y 0.000973157
3 *58:10 0.00160417
4 *830:RESET_B *715:A 0.000535366
5 *830:RESET_B *715:B 0.000266938
6 *830:RESET_B *732:A 0.000127678
7 *830:RESET_B *145:91 0.000392027
8 *830:RESET_B *168:82 0.000131421
9 *58:10 *710:A1 6.19211e-06
10 *58:10 *710:A2 1.58163e-05
11 *58:10 *712:A 9.91033e-05
12 *58:10 *76:12 0.000214164
13 *58:10 *78:10 0.001987
14 *58:10 *154:50 0.0019625
15 *817:D *830:RESET_B 3.65943e-05
16 *29:14 *830:RESET_B 0.000101688
17 *47:16 *58:10 0.000218545
*RES
1 *801:Y *58:10 48.3179 
2 *58:10 *830:RESET_B 19.0804 
*END

*D_NET *59 0.00666649
*CONN
*I *831:RESET_B I *D sky130_fd_sc_hd__dfrtp_1
*I *802:Y O *D sky130_fd_sc_hd__inv_2
*CAP
1 *831:RESET_B 0.0014412
2 *802:Y 0.0014412
3 *831:RESET_B *697:A 0.000898704
4 *831:RESET_B *710:B1 0.000302684
5 *831:RESET_B *771:B2 0.000464471
6 *831:RESET_B *839:CLK 0.000266533
7 *831:RESET_B *844:A 8.97968e-05
8 *831:RESET_B *73:8 0.000726888
9 *831:RESET_B *78:22 0.000141131
10 *831:RESET_B *137:10 2.79201e-05
11 *831:RESET_B *138:8 0.000283944
12 *831:RESET_B *138:10 1.02504e-05
13 *831:RESET_B *150:6 0.000135028
14 *831:RESET_B *157:14 0.000123095
15 *839:D *831:RESET_B 3.14078e-05
16 *38:18 *831:RESET_B 0.000282229
*RES
1 *802:Y *831:RESET_B 49.6839 
*END

*D_NET *60 0.0144756
*CONN
*I *832:RESET_B I *D sky130_fd_sc_hd__dfrtp_1
*I *803:Y O *D sky130_fd_sc_hd__inv_2
*CAP
1 *832:RESET_B 0.0047909
2 *803:Y 0.0047909
3 *832:RESET_B *718:A1 0
4 *832:RESET_B *739:A_N 9.28247e-05
5 *832:RESET_B *753:A 0.000253045
6 *832:RESET_B *778:A 0
7 *832:RESET_B *93:26 0.00225786
8 *832:RESET_B *122:29 6.05966e-05
9 *832:RESET_B *126:63 3.27658e-05
10 *832:RESET_B *130:141 0.00020469
11 *32:10 *832:RESET_B 6.51909e-05
12 *38:18 *832:RESET_B 0.00192682
*RES
1 *803:Y *832:RESET_B 48.4358 
*END

*D_NET *61 0.0135748
*CONN
*I *833:RESET_B I *D sky130_fd_sc_hd__dfrtp_2
*I *804:Y O *D sky130_fd_sc_hd__inv_2
*CAP
1 *833:RESET_B 0.000509724
2 *804:Y 7.70325e-05
3 *61:18 0.00302575
4 *61:8 0.00259306
5 *833:RESET_B *774:A 0.000130073
6 *833:RESET_B *787:A 0.000433122
7 *833:RESET_B *116:59 0
8 *833:RESET_B *146:22 0.000207537
9 *61:8 *128:115 9.41642e-05
10 *61:18 *690:D 7.83659e-05
11 *61:18 *719:A 0.000168956
12 *61:18 *753:A 0.000377073
13 *61:18 *95:37 0.000830786
14 *61:18 *95:75 0.00322068
15 *61:18 *140:10 0.000917285
16 *61:18 *140:26 0.000216429
17 *61:18 *140:62 0.000119766
18 *61:18 *140:71 3.2746e-05
19 *20:12 *61:18 0.000542282
20 *38:18 *61:18 0
21 *40:14 *833:RESET_B 0
*RES
1 *804:Y *61:8 14.7464 
2 *61:8 *61:18 48.0612 
3 *61:18 *833:RESET_B 17.8207 
*END

*D_NET *62 0.000513333
*CONN
*I *834:RESET_B I *D sky130_fd_sc_hd__dfrtp_1
*I *805:Y O *D sky130_fd_sc_hd__inv_2
*CAP
1 *834:RESET_B 0.000164131
2 *805:Y 0.000164131
3 *834:RESET_B *693:A 0
4 *834:RESET_B *749:A 2.24724e-05
5 *834:RESET_B *153:33 9.1736e-05
6 *24:16 *834:RESET_B 7.08626e-05
*RES
1 *805:Y *834:RESET_B 21.4339 
*END

*D_NET *63 0.00259079
*CONN
*I *835:RESET_B I *D sky130_fd_sc_hd__dfrtp_2
*I *806:Y O *D sky130_fd_sc_hd__inv_2
*CAP
1 *835:RESET_B 0.000975144
2 *806:Y 0.000975144
3 *835:RESET_B *723:A 5.71472e-05
4 *835:RESET_B *856:A 8.72474e-05
5 *835:RESET_B *64:14 0.000232825
6 *835:RESET_B *96:12 0.000109643
7 *835:RESET_B *154:8 0.000133023
8 seg[5] *835:RESET_B 2.06178e-05
9 *39:10 *835:RESET_B 0
*RES
1 *806:Y *835:RESET_B 36.4696 
*END

*D_NET *64 0.0157118
*CONN
*I *836:RESET_B I *D sky130_fd_sc_hd__dfrtp_1
*I *807:Y O *D sky130_fd_sc_hd__inv_2
*CAP
1 *836:RESET_B 0.00371308
2 *807:Y 0.000263214
3 *64:14 0.00586212
4 *64:8 0.00241226
5 *836:RESET_B *690:A 0.000585705
6 *836:RESET_B *692:A 2.09826e-05
7 *836:RESET_B *704:A1 4.64488e-06
8 *836:RESET_B *715:C 0
9 *836:RESET_B *779:B 0
10 *836:RESET_B *836:CLK 4.70821e-05
11 *836:RESET_B *91:40 0.000271983
12 *836:RESET_B *132:81 0
13 *836:RESET_B *146:53 0
14 *836:RESET_B *159:39 0.000251833
15 *836:RESET_B *166:71 6.59103e-06
16 *64:8 *764:A_N 4.3516e-05
17 *64:8 *119:29 0.000141131
18 *64:14 *717:A 0.000991771
19 *64:14 *722:A 0
20 *64:14 *856:A 0.000153047
21 *64:14 *95:8 0
22 *64:14 *95:25 0
23 *64:14 *144:18 0
24 *64:14 *147:14 0
25 seg[2] *64:14 0
26 seg[3] *64:14 0
27 seg[4] *64:14 0.000140189
28 seg[5] *64:14 2.22043e-05
29 *835:RESET_B *64:14 0.000232825
30 *5:13 *836:RESET_B 0
31 *26:18 *836:RESET_B 2.58856e-05
32 *39:10 *64:14 0.000521736
*RES
1 *807:Y *64:8 17.2107 
2 *64:8 *64:14 48.5268 
3 *64:14 *836:RESET_B 19.1075 
*END

*D_NET *65 0.00622654
*CONN
*I *837:RESET_B I *D sky130_fd_sc_hd__dfrtp_1
*I *808:Y O *D sky130_fd_sc_hd__inv_2
*CAP
1 *837:RESET_B 0.0021581
2 *808:Y 0.0021581
3 *837:RESET_B *688:A 5.33005e-05
4 *837:RESET_B *738:B1 4.12921e-05
5 *837:RESET_B *775:A2 0.000193179
6 *837:RESET_B *820:CLK 0.00038527
7 *837:RESET_B *119:29 0.000265385
8 *837:RESET_B *121:12 0.000265385
9 *837:RESET_B *153:50 0.00026816
10 *837:RESET_B *157:8 5.33005e-05
11 *837:RESET_B *163:20 0.000126229
12 *837:RESET_B *166:55 0.000205535
13 *34:14 *837:RESET_B 5.33005e-05
*RES
1 *808:Y *837:RESET_B 47.4339 
*END

*D_NET *66 0.00885598
*CONN
*I *838:RESET_B I *D sky130_fd_sc_hd__dfrtp_1
*I *809:Y O *D sky130_fd_sc_hd__inv_2
*CAP
1 *838:RESET_B 0.00225872
2 *809:Y 0.000432685
3 *66:10 0.00269141
4 *838:RESET_B *719:A 0.00024609
5 *838:RESET_B *822:CLK 0.000106661
6 *838:RESET_B *838:CLK 0.00012195
7 *838:RESET_B *82:10 0.000156528
8 *838:RESET_B *164:32 9.1246e-05
9 *838:RESET_B *165:10 0.000599038
10 *66:10 *719:A 0
11 *66:10 *764:A_N 0
12 *66:10 *794:A 0.000520433
13 *66:10 *130:18 0.000270965
14 *822:D *838:RESET_B 5.52238e-05
15 *822:RESET_B *838:RESET_B 0.00130504
16 *835:D *66:10 0
*RES
1 *809:Y *66:10 28.4429 
2 *66:10 *838:RESET_B 32.1339 
*END

*D_NET *67 0.000946063
*CONN
*I *839:RESET_B I *D sky130_fd_sc_hd__dfrtp_1
*I *810:Y O *D sky130_fd_sc_hd__inv_2
*CAP
1 *839:RESET_B 0.000197402
2 *810:Y 0.000197402
3 *839:RESET_B *810:A 0.000372066
4 *839:RESET_B *116:59 0.000179194
*RES
1 *810:Y *839:RESET_B 13.8804 
*END

*D_NET *68 0.00961886
*CONN
*I *840:RESET_B I *D sky130_fd_sc_hd__dfrtp_1
*I *811:Y O *D sky130_fd_sc_hd__inv_2
*CAP
1 *840:RESET_B 0.000649631
2 *811:Y 0.000903103
3 *68:10 0.00155273
4 *840:RESET_B *690:B 9.91086e-05
5 *840:RESET_B *690:C 4.2049e-05
6 *840:RESET_B *718:B1 0.000101125
7 *840:RESET_B *841:RESET_B 0.000131343
8 *840:RESET_B *93:26 0.000111261
9 *840:RESET_B *119:21 0.000131799
10 *840:RESET_B *132:81 2.1892e-05
11 *840:RESET_B *140:10 0.000209333
12 *840:RESET_B *140:26 0.00010095
13 *840:RESET_B *140:62 0.000134691
14 *840:RESET_B *140:71 4.52236e-05
15 *840:RESET_B *153:50 1.437e-05
16 *840:RESET_B *159:23 0.000616912
17 *68:10 *716:A2_N 0.00108018
18 *68:10 *716:B2 0.000173463
19 *68:10 *753:A 0.000150751
20 *68:10 *810:A 9.60875e-05
21 *68:10 *82:126 0.000238168
22 *68:10 *82:141 0.000978149
23 *68:10 *95:75 0.000633656
24 *68:10 *128:43 0.000263102
25 *68:10 *130:12 0.000752224
26 *68:10 *130:14 0.000311669
27 *20:12 *840:RESET_B 7.58841e-05
*RES
1 *811:Y *68:10 47.0857 
2 *68:10 *840:RESET_B 29.3482 
*END

*D_NET *69 0.00729303
*CONN
*I *841:RESET_B I *D sky130_fd_sc_hd__dfrtp_2
*I *812:Y O *D sky130_fd_sc_hd__inv_2
*CAP
1 *841:RESET_B 0.00052952
2 *812:Y 0.000830633
3 *69:12 0.00136015
4 *841:RESET_B *690:C 8.05563e-05
5 *841:RESET_B *690:D 0.000297143
6 *841:RESET_B *785:A 1.92789e-05
7 *69:12 *692:A 0.000684792
8 *69:12 *692:C 0.00150569
9 *69:12 *692:D 0.000306048
10 *69:12 *755:A 2.14757e-05
11 *69:12 *759:A 7.65689e-05
12 *69:12 *759:C 0.000425226
13 *69:12 *767:C 2.42525e-05
14 *69:12 *772:B1 9.71197e-05
15 *69:12 *812:A 0.000501915
16 *69:12 *74:14 4.43256e-05
17 *69:12 *116:20 4.64978e-05
18 *69:12 *151:18 0.000138017
19 *829:RESET_B *69:12 0.000146547
20 *840:RESET_B *841:RESET_B 0.000131343
21 *841:D *841:RESET_B 2.59355e-05
*RES
1 *812:Y *69:12 45.9071 
2 *69:12 *841:RESET_B 8.00893 
*END

*D_NET *70 0.00737337
*CONN
*I *813:D I *D sky130_fd_sc_hd__dfrtp_4
*I *709:Y O *D sky130_fd_sc_hd__a21oi_1
*CAP
1 *813:D 0.00159417
2 *709:Y 0.000733927
3 *70:16 0.0023281
4 *813:D *777:A 6.2453e-05
5 *813:D *813:CLK 8.9971e-05
6 *813:D *82:98 5.44742e-05
7 *813:D *126:32 7.34667e-06
8 *813:D *126:63 1.58163e-05
9 *70:16 *695:A 4.67829e-05
10 *70:16 *709:A1 2.11972e-05
11 *70:16 *762:A1 6.05161e-06
12 *70:16 *770:A 0.000136676
13 *70:16 *770:C 9.41642e-05
14 *70:16 *85:10 7.92219e-05
15 *70:16 *96:39 0.000487412
16 *70:16 *123:16 0.000177815
17 *70:16 *149:24 0.000472665
18 *70:16 *166:22 9.42787e-05
19 *70:16 *166:55 5.49257e-05
20 *26:18 *70:16 0.000815926
*RES
1 *709:Y *70:16 38.1929 
2 *70:16 *813:D 27.1214 
*END

*D_NET *71 0.00777489
*CONN
*I *814:D I *D sky130_fd_sc_hd__dfrtp_4
*I *707:X O *D sky130_fd_sc_hd__xor2_1
*CAP
1 *814:D 0.000893013
2 *707:X 0.00101213
3 *71:18 0.00190514
4 *814:D *814:CLK 0.000607479
5 *814:D *828:CLK 0.000125443
6 *814:D *126:16 9.58126e-05
7 *71:18 *690:C 9.41642e-05
8 *71:18 *707:A 4.58194e-05
9 *71:18 *73:16 0.000396995
10 *71:18 *82:141 0.000913694
11 *71:18 *83:16 0.000667377
12 *71:18 *130:101 9.01775e-06
13 *71:18 *130:107 9.33978e-07
14 *71:18 *134:25 8.83565e-05
15 *71:18 *144:16 0.000396995
16 *820:RESET_B *814:D 0.000344413
17 *22:10 *71:18 6.90895e-05
18 *22:20 *71:18 0.000106512
19 *34:14 *814:D 2.51343e-06
*RES
1 *707:X *71:18 46.4607 
2 *71:18 *814:D 29.9429 
*END

*D_NET *72 0.00151049
*CONN
*I *815:D I *D sky130_fd_sc_hd__dfrtp_4
*I *705:Y O *D sky130_fd_sc_hd__o31ai_1
*CAP
1 *815:D 0.00027164
2 *705:Y 0.00027164
3 *815:D *705:B1 0.000157102
4 *815:D *741:A 9.83442e-05
5 *815:D *815:CLK 7.02611e-05
6 *815:D *143:26 0.000641507
*RES
1 *705:Y *815:D 26.1179 
*END

*D_NET *73 0.0129273
*CONN
*I *816:D I *D sky130_fd_sc_hd__dfrtp_4
*I *697:X O *D sky130_fd_sc_hd__xor2_1
*CAP
1 *816:D 0.000193727
2 *697:X 0.00140605
3 *73:16 0.00134009
4 *73:8 0.00255242
5 *816:D *128:105 2.59355e-05
6 *816:D *168:16 6.66848e-05
7 *816:D *168:26 5.03772e-05
8 *73:8 *697:A 0.000549573
9 *73:16 *716:A1_N 0.000264203
10 *73:16 *722:A 5.66157e-05
11 *73:16 *723:A 0.000846861
12 *73:16 *773:B 2.6276e-05
13 *73:16 *130:78 0.000417898
14 *73:16 *130:91 0.000221163
15 *73:16 *141:79 0.000376552
16 *73:16 *141:92 0.000379776
17 *73:16 *144:16 0.0013617
18 *73:16 *144:18 0.000959093
19 *73:16 *169:54 0.000708457
20 *831:RESET_B *73:8 0.000726888
21 *71:18 *73:16 0.000396995
*RES
1 *697:X *73:8 31.5857 
2 *73:8 *73:16 47.8929 
3 *73:16 *816:D 12.7107 
*END

*D_NET *74 0.00609997
*CONN
*I *695:B I *D sky130_fd_sc_hd__and4_2
*I *692:X O *D sky130_fd_sc_hd__and4_1
*CAP
1 *695:B 7.62049e-05
2 *692:X 0.00150591
3 *74:14 0.00158211
4 *695:B *842:A 7.58841e-05
5 *695:B *75:56 2.89114e-05
6 *695:B *172:16 7.70035e-05
7 *74:14 *692:A 0.000897101
8 *74:14 *700:B 0.000134225
9 *74:14 *704:A3 0.000105471
10 *74:14 *81:26 0.00130327
11 *74:14 *85:10 9.15842e-06
12 *74:14 *135:30 3.06878e-06
13 *74:14 *149:8 0.000112606
14 *74:14 *159:39 0.000144719
15 *69:12 *74:14 4.43256e-05
*RES
1 *692:X *74:14 46.7643 
2 *74:14 *695:B 19.8714 
*END

*D_NET *75 0.027066
*CONN
*I *749:B I *D sky130_fd_sc_hd__and3_1
*I *742:B I *D sky130_fd_sc_hd__nor2_1
*I *741:B I *D sky130_fd_sc_hd__and2_1
*I *739:A_N I *D sky130_fd_sc_hd__and2b_1
*I *695:C I *D sky130_fd_sc_hd__and4_2
*I *744:C I *D sky130_fd_sc_hd__and3_2
*I *693:X O *D sky130_fd_sc_hd__and4_2
*CAP
1 *749:B 0.00200395
2 *742:B 9.55617e-05
3 *741:B 0.000317393
4 *739:A_N 0.0020827
5 *695:C 0
6 *744:C 0
7 *693:X 0.000161483
8 *75:58 0.00255014
9 *75:56 0.0013847
10 *75:25 0.00177136
11 *75:8 0.0027977
12 *739:A_N *712:B 0.000347785
13 *739:A_N *771:A1_N 6.99199e-05
14 *739:A_N *771:A2_N 9.60939e-05
15 *739:A_N *771:B1 1.58163e-05
16 *739:A_N *771:B2 6.2058e-05
17 *739:A_N *794:A 4.87953e-05
18 *739:A_N *797:A 2.44318e-05
19 *739:A_N *832:CLK 3.67142e-05
20 *739:A_N *838:CLK 9.91086e-05
21 *739:A_N *80:24 0.00037236
22 *739:A_N *94:16 0.000367553
23 *739:A_N *122:29 0.000231924
24 *739:A_N *131:16 0.000472299
25 *739:A_N *146:22 0.000137397
26 *741:B *730:A 0.000344523
27 *741:B *146:22 9.41642e-05
28 *741:B *164:34 0
29 *741:B *165:10 0.000240572
30 *742:B *742:A 9.41642e-05
31 *742:B *789:A 8.80625e-05
32 *742:B *105:14 1.83136e-05
33 *749:B *779:A 2.96581e-05
34 *749:B *161:46 4.88909e-05
35 *749:B *164:93 0
36 *749:B *170:16 0.000471268
37 *75:8 *744:A 9.96463e-05
38 *75:8 *749:A 6.3572e-06
39 *75:25 *695:D 0.000225385
40 *75:25 *83:26 1.10868e-05
41 *75:25 *106:16 0.00143425
42 *75:25 *145:91 0.000364645
43 *75:25 *164:93 0.000569088
44 *75:25 *170:16 0
45 *75:56 *695:A 9.66977e-05
46 *75:56 *701:A 0.000228485
47 *75:56 *837:CLK 0.000834073
48 *75:56 *842:A 8.84398e-05
49 *75:56 *77:14 1.0033e-05
50 *75:56 *80:24 0.000950261
51 *75:56 *83:16 5.54655e-05
52 *75:56 *83:26 0.000116288
53 *75:56 *85:10 0.000386973
54 *75:56 *97:36 0.000534048
55 *75:56 *98:16 0.000245834
56 *75:56 *137:27 0.000234322
57 *75:56 *167:16 0.000625857
58 *75:56 *172:16 0
59 *75:56 *173:27 0.000475449
60 *75:58 *838:CLK 0.000253814
61 *75:58 *80:24 0.000426748
62 *75:58 *137:27 0.000169797
63 *695:B *75:56 2.89114e-05
64 *817:D *75:56 3.89033e-05
65 *819:D *749:B 0.00116686
66 *825:RESET_B *749:B 0.000189522
67 *832:RESET_B *739:A_N 9.28247e-05
68 *22:20 *739:A_N 0.000129038
*RES
1 *693:X *75:8 11.4964 
2 *75:8 *744:C 9.3 
3 *75:8 *75:25 31.2321 
4 *75:25 *695:C 9.3 
5 *75:25 *75:56 49.2679 
6 *75:56 *75:58 5.58929 
7 *75:58 *739:A_N 48.2286 
8 *75:58 *741:B 29.3714 
9 *75:56 *742:B 15.9964 
10 *75:8 *749:B 47.2107 
*END

*D_NET *76 0.00663834
*CONN
*I *695:D I *D sky130_fd_sc_hd__and4_2
*I *694:X O *D sky130_fd_sc_hd__and4_1
*CAP
1 *695:D 0.000125694
2 *694:X 0.000679377
3 *76:12 0.000805071
4 *695:D *83:26 0.000130931
5 *695:D *164:85 9.41642e-05
6 *76:12 *698:A2 5.49489e-05
7 *76:12 *106:26 0.000593626
8 *76:12 *142:45 9.77264e-06
9 *76:12 *142:58 6.12434e-05
10 *76:12 *143:26 9.66977e-05
11 *76:12 *143:34 9.41642e-05
12 *76:12 *145:91 5.49257e-05
13 *76:12 *154:50 0.00160379
14 *76:12 *164:93 3.34295e-05
15 *28:12 *76:12 0.00137316
16 *29:24 *76:12 0
17 *47:12 *76:12 0.000387796
18 *47:16 *76:12 0
19 *58:10 *76:12 0.000214164
20 *75:25 *695:D 0.000225385
*RES
1 *694:X *76:12 48.9607 
2 *76:12 *695:D 12.7107 
*END

*D_NET *77 0.0320707
*CONN
*I *701:A I *D sky130_fd_sc_hd__clkbuf_4
*I *696:D I *D sky130_fd_sc_hd__and4_1
*I *779:D I *D sky130_fd_sc_hd__and4_1
*I *717:B I *D sky130_fd_sc_hd__nand2_1
*I *706:D I *D sky130_fd_sc_hd__and4_1
*I *718:A2 I *D sky130_fd_sc_hd__a21o_1
*I *776:C I *D sky130_fd_sc_hd__and3_1
*I *695:X O *D sky130_fd_sc_hd__and4_2
*CAP
1 *701:A 0.00304975
2 *696:D 0.000250992
3 *779:D 9.67215e-05
4 *717:B 0.000809034
5 *706:D 0
6 *718:A2 0.000395344
7 *776:C 0
8 *695:X 0.000413599
9 *77:86 0.000739166
10 *77:58 0.00117411
11 *77:37 0.00134201
12 *77:30 0.00195012
13 *77:22 0.00219179
14 *77:14 0.00389516
15 *696:D *111:18 0.000179564
16 *696:D *165:69 0.000516618
17 *701:A *700:B 0.00114471
18 *701:A *704:A3 0.000123067
19 *701:A *731:A2 5.00887e-05
20 *701:A *735:B 0.000121805
21 *701:A *737:A 0.000732268
22 *701:A *770:C 8.14707e-05
23 *701:A *80:24 0.000175855
24 *701:A *83:16 0.000155374
25 *701:A *103:30 4.07407e-06
26 *701:A *117:16 0.00010975
27 *701:A *123:16 4.79414e-05
28 *701:A *165:48 0.000138357
29 *701:A *167:16 0.00014318
30 *717:B *690:A 4.11218e-05
31 *717:B *690:B 1.39726e-05
32 *717:B *706:C 4.08637e-05
33 *717:B *738:A3 0.00110116
34 *717:B *738:B1 6.52406e-05
35 *717:B *773:B 5.52302e-05
36 *717:B *92:14 2.05823e-05
37 *717:B *134:6 5.33005e-05
38 *717:B *134:25 9.78828e-05
39 *717:B *144:16 0.00165251
40 *717:B *144:18 0.000176742
41 *718:A2 *702:A_N 3.22304e-05
42 *718:A2 *713:C 9.41642e-05
43 *718:A2 *772:B1 5.03772e-05
44 *718:A2 *82:141 5.48376e-05
45 *718:A2 *95:75 0.000119764
46 *718:A2 *130:141 0.00032559
47 *779:D *779:A 0.000269795
48 *779:D *779:B 4.5384e-05
49 *779:D *779:C 2.84026e-05
50 *779:D *127:12 0.000438732
51 *77:14 *695:A 9.35114e-06
52 *77:14 *83:16 0.000173392
53 *77:14 *83:26 0.000395267
54 *77:14 *103:30 1.37488e-05
55 *77:14 *165:48 9.1157e-05
56 *77:22 *704:A3 1.496e-05
57 *77:22 *709:B1 0.000484398
58 *77:22 *770:C 2.06178e-05
59 *77:22 *86:20 0.000186636
60 *77:22 *111:18 0.000311969
61 *77:22 *135:30 0.000220575
62 *77:22 *165:48 0.000141163
63 *77:30 *796:A 0.000598871
64 *77:30 *86:20 0.000894375
65 *77:30 *116:20 0.00018077
66 *77:37 *690:B 3.55279e-05
67 *77:37 *776:A 0.000136682
68 *77:37 *140:30 6.45913e-05
69 *77:37 *153:50 0.000164334
70 *77:58 *690:B 2.24079e-05
71 *77:58 *706:B 0.000175892
72 *77:58 *706:C 5.33005e-05
73 *77:58 *773:B 0.000461937
74 *77:58 *82:141 9.41642e-05
75 *77:58 *82:154 4.27935e-05
76 *77:86 *693:B 8.71047e-05
77 *77:86 *693:C 2.76049e-05
78 *77:86 *842:A 0
79 *77:86 *86:20 2.58997e-05
80 *77:86 *111:18 0.000336683
81 *77:86 *165:69 0.000301233
82 *77:86 *170:16 0
83 *817:D *77:14 4.3588e-05
84 *817:D *77:22 2.43717e-05
85 *824:D *77:30 0.00025376
86 *824:D *77:37 6.76057e-05
87 *843:A *701:A 9.38207e-05
88 *32:10 *718:A2 0.000342068
89 *56:18 *717:B 0.000429787
90 *75:56 *701:A 0.000228485
91 *75:56 *77:14 1.0033e-05
*RES
1 *695:X *77:14 22.2857 
2 *77:14 *77:22 16.1868 
3 *77:22 *77:30 28.0625 
4 *77:30 *776:C 9.3 
5 *77:30 *77:37 7.22321 
6 *77:37 *718:A2 28.2286 
7 *77:37 *77:58 7.125 
8 *77:58 *706:D 9.3 
9 *77:58 *717:B 48.1929 
10 *77:22 *77:86 10.8036 
11 *77:86 *779:D 18.0321 
12 *77:86 *696:D 21.5143 
13 *77:14 *701:A 31.9789 
*END

*D_NET *78 0.0171152
*CONN
*I *697:B I *D sky130_fd_sc_hd__xor2_1
*I *696:X O *D sky130_fd_sc_hd__and4_1
*CAP
1 *697:B 0
2 *696:X 0.000656392
3 *78:22 0.00218636
4 *78:10 0.00317429
5 *78:8 0.00164433
6 *78:8 *752:A_N 5.98389e-05
7 *78:8 *111:18 0.000315116
8 *78:10 *131:26 0.000302981
9 *78:10 *154:50 0.000694738
10 *78:22 *768:A 3.88664e-05
11 *78:22 *844:A 7.1959e-05
12 *78:22 *855:A 7.27549e-05
13 *78:22 *129:14 4.54936e-05
14 *78:22 *129:18 3.34366e-05
15 *78:22 *154:46 0.0022195
16 *818:RESET_B *78:22 0.000264841
17 *831:RESET_B *78:22 0.000141131
18 *47:16 *78:10 0.00320617
19 *58:10 *78:10 0.001987
*RES
1 *696:X *78:8 22.1393 
2 *78:8 *78:10 48.6964 
3 *78:10 *78:22 44.4107 
4 *78:22 *697:B 9.3 
*END

*D_NET *79 0.000751922
*CONN
*I *705:A2 I *D sky130_fd_sc_hd__o31ai_1
*I *698:Y O *D sky130_fd_sc_hd__a21oi_1
*CAP
1 *705:A2 0.000160652
2 *698:Y 0.000160652
3 *705:A2 *705:A3 3.47984e-05
4 *705:A2 *106:50 0.000129868
5 *705:A2 *107:18 0.000126439
6 *705:A2 *142:58 0.000139512
*RES
1 *698:Y *705:A2 30.9571 
*END

*D_NET *80 0.0196101
*CONN
*I *700:B I *D sky130_fd_sc_hd__nor2_1
*I *731:B1_N I *D sky130_fd_sc_hd__a21boi_1
*I *699:X O *D sky130_fd_sc_hd__or3b_2
*CAP
1 *700:B 0.00226095
2 *731:B1_N 0
3 *699:X 0.000744873
4 *80:24 0.0017655
5 *80:14 0.00477132
6 *700:B *737:A 0.00109016
7 *700:B *81:26 0.000187857
8 *700:B *85:10 0.000129259
9 *700:B *92:38 0
10 *700:B *111:18 0.00015158
11 *700:B *141:100 5.54817e-06
12 *700:B *161:67 2.69106e-05
13 *700:B *162:29 0.00152131
14 *700:B *165:48 0.0001492
15 *80:14 *780:A2_N 5.33005e-05
16 *80:14 *82:98 7.35265e-05
17 *80:14 *82:113 0.000165988
18 *80:14 *92:38 9.18028e-05
19 *80:14 *96:39 0.000705514
20 *80:14 *101:10 1.5929e-05
21 *80:14 *157:14 0.000109112
22 *80:24 *731:A1 0.000141036
23 *80:24 *731:A2 0.000216384
24 *80:24 *737:A 4.4401e-05
25 *80:24 *98:16 0.00134324
26 *80:24 *106:58 2.83051e-05
27 *80:24 *117:16 0.00016021
28 *80:24 *146:22 8.74803e-05
29 *80:24 *166:8 9.83388e-05
30 *80:24 *166:22 0
31 *701:A *700:B 0.00114471
32 *701:A *80:24 0.000175855
33 *739:A_N *80:24 0.00037236
34 *819:RESET_B *700:B 0
35 *823:RESET_B *80:24 9.35501e-05
36 *45:32 *80:14 0.000173356
37 *74:14 *700:B 0.000134225
38 *75:56 *80:24 0.000950261
39 *75:58 *80:24 0.000426748
*RES
1 *699:X *80:14 22.2959 
2 *80:14 *80:24 47.8475 
3 *80:24 *731:B1_N 9.3 
4 *80:14 *700:B 32.1688 
*END

*D_NET *81 0.0131406
*CONN
*I *726:A I *D sky130_fd_sc_hd__nor2_1
*I *702:A_N I *D sky130_fd_sc_hd__nand4b_2
*I *725:B1 I *D sky130_fd_sc_hd__a2111o_1
*I *700:Y O *D sky130_fd_sc_hd__nor2_1
*CAP
1 *726:A 0
2 *702:A_N 0.000326195
3 *725:B1 0
4 *700:Y 0
5 *81:51 0.00156517
6 *81:26 0.00148541
7 *81:4 0.00272438
8 *702:A_N *825:CLK 9.31011e-05
9 *702:A_N *95:75 8.18725e-05
10 *702:A_N *130:141 9.98172e-05
11 *81:26 *692:A 7.80851e-06
12 *81:26 *725:A2 0.000181381
13 *81:26 *762:A2 6.6382e-05
14 *81:26 *779:B 0
15 *81:26 *796:A 0.000333493
16 *81:26 *85:10 0.000164175
17 *81:26 *97:36 9.77264e-06
18 *81:26 *106:16 5.52302e-05
19 *81:26 *111:18 0.00026407
20 *81:26 *161:67 0
21 *81:26 *167:16 0.000502869
22 *81:26 *173:6 0.000145358
23 *81:26 *173:27 0.000604499
24 *81:51 *721:A 2.85321e-05
25 *81:51 *755:A 0.000272288
26 *81:51 *767:B 0.000626472
27 *81:51 *767:C 1.98839e-05
28 *81:51 *772:A2 0.000528701
29 *81:51 *114:26 0.000183634
30 *81:51 *121:8 0.000262699
31 *81:51 *166:71 2.57405e-05
32 *700:B *81:26 0.000187857
33 *718:A2 *702:A_N 3.22304e-05
34 *829:RESET_B *81:51 1.50689e-05
35 *32:10 *702:A_N 0.000236226
36 *32:10 *81:51 6.66115e-05
37 *34:14 *81:26 0.000640405
38 *74:14 *81:26 0.00130327
*RES
1 *700:Y *81:4 9.3 
2 *81:4 *81:26 47.7321 
3 *81:26 *725:B1 9.3 
4 *81:4 *81:51 35.8571 
5 *81:51 *702:A_N 34.4786 
6 *81:51 *726:A 9.3 
*END

*D_NET *82 0.0348666
*CONN
*I *713:C I *D sky130_fd_sc_hd__and3_1
*I *702:B I *D sky130_fd_sc_hd__nand4b_2
*I *773:A I *D sky130_fd_sc_hd__nor2_1
*I *775:A2 I *D sky130_fd_sc_hd__a21oi_1
*I *716:A2_N I *D sky130_fd_sc_hd__o2bb2a_1
*I *780:A2_N I *D sky130_fd_sc_hd__o2bb2a_1
*I *704:A3 I *D sky130_fd_sc_hd__a31o_1
*I *710:A2 I *D sky130_fd_sc_hd__a21oi_1
*I *711:C I *D sky130_fd_sc_hd__and3_1
*I *774:B I *D sky130_fd_sc_hd__xor2_1
*I *701:X O *D sky130_fd_sc_hd__clkbuf_4
*CAP
1 *713:C 0.000213914
2 *702:B 0
3 *773:A 0
4 *775:A2 0.000225629
5 *716:A2_N 0.00075649
6 *780:A2_N 0.000314272
7 *704:A3 0.00106293
8 *710:A2 0.000646489
9 *711:C 0.000110619
10 *774:B 0.000142309
11 *701:X 6.42005e-05
12 *82:154 0.000445667
13 *82:141 0.000903984
14 *82:126 0.000963446
15 *82:113 0.00186896
16 *82:98 0.00238037
17 *82:67 0.00235339
18 *82:46 0.00127047
19 *82:20 0.000848995
20 *82:10 0.00101301
21 *704:A3 *694:C 0.000125724
22 *704:A3 *770:C 0.000150854
23 *704:A3 *817:CLK 3.18676e-05
24 *704:A3 *111:18 0.000474255
25 *704:A3 *135:30 0.000252202
26 *704:A3 *165:48 0.000828681
27 *710:A2 *698:A2 1.68344e-05
28 *710:A2 *710:A1 6.05161e-06
29 *710:A2 *720:A 1.94945e-05
30 *710:A2 *734:A 0
31 *710:A2 *106:50 0.000112284
32 *710:A2 *107:18 2.09897e-05
33 *711:C *711:A 5.33005e-05
34 *711:C *760:A1 0.000214145
35 *711:C *131:16 6.7054e-05
36 *713:C *718:A1 5.33005e-05
37 *713:C *718:B1 0.000104781
38 *713:C *759:A 0.000521788
39 *713:C *772:B1 0.000114902
40 *716:A2_N *716:B1 0.000514195
41 *716:A2_N *103:30 0.000165232
42 *716:A2_N *128:18 0.000884618
43 *716:A2_N *128:22 0.000218026
44 *716:A2_N *130:14 3.57844e-05
45 *774:B *687:C 1.38167e-05
46 *774:B *711:A 1.19191e-05
47 *774:B *722:B 0
48 *774:B *774:A 0
49 *775:A2 *777:A 3.14078e-05
50 *775:A2 *152:67 5.49489e-05
51 *775:A2 *153:50 0.000141279
52 *780:A2_N *708:A 9.41642e-05
53 *780:A2_N *780:A1_N 2.14757e-05
54 *780:A2_N *780:B1 0.000188238
55 *780:A2_N *144:87 7.90832e-05
56 *82:10 *838:CLK 9.60939e-05
57 *82:20 *687:C 2.86195e-05
58 *82:20 *711:A 7.39968e-05
59 *82:20 *711:B 0.000100248
60 *82:20 *731:A2 8.91963e-06
61 *82:20 *89:18 7.82664e-05
62 *82:20 *99:24 0.000605671
63 *82:20 *146:22 0.000445282
64 *82:46 *838:CLK 0.000136042
65 *82:46 *99:24 0.000726013
66 *82:46 *137:27 0.000174618
67 *82:46 *146:22 9.97669e-05
68 *82:67 *735:B 0.000567743
69 *82:67 *837:CLK 8.48721e-05
70 *82:67 *99:24 0.000774883
71 *82:67 *137:27 2.08218e-05
72 *82:98 *101:10 9.59912e-05
73 *82:98 *157:14 1.17968e-05
74 *82:113 *130:12 9.41642e-05
75 *82:113 *144:66 0.00172776
76 *82:113 *144:87 0.000261806
77 *82:126 *128:18 0.000247418
78 *82:141 *690:B 4.58194e-05
79 *82:141 *83:16 5.70525e-05
80 *82:141 *91:40 7.69776e-06
81 *82:141 *95:75 0.000179624
82 *82:141 *123:65 8.23597e-06
83 *82:141 *128:18 0.000380961
84 *82:141 *130:141 0.000120724
85 *82:154 *690:B 2.59355e-05
86 *82:154 *702:C 0.000222146
87 *82:154 *83:16 0.000515655
88 *82:154 *130:141 3.37068e-05
89 *82:154 *134:25 0.000367206
90 *701:A *704:A3 0.000123067
91 *718:A2 *713:C 9.41642e-05
92 *718:A2 *82:141 5.48376e-05
93 *813:D *82:98 5.44742e-05
94 *817:D *704:A3 3.51442e-05
95 *817:RESET_B *704:A3 0
96 *822:D *82:20 0.000160374
97 *831:D *710:A2 0.000100915
98 *833:D *774:B 4.58591e-05
99 *837:RESET_B *775:A2 0.000193179
100 *838:RESET_B *82:10 0.000156528
101 *22:20 *716:A2_N 2.16719e-05
102 *22:20 *82:141 6.3577e-05
103 *33:16 *82:20 0.000353181
104 *58:10 *710:A2 1.58163e-05
105 *68:10 *716:A2_N 0.00108018
106 *68:10 *82:126 0.000238168
107 *68:10 *82:141 0.000978149
108 *71:18 *82:141 0.000913694
109 *74:14 *704:A3 0.000105471
110 *77:22 *704:A3 1.496e-05
111 *77:58 *82:141 9.41642e-05
112 *77:58 *82:154 4.27935e-05
113 *80:14 *780:A2_N 5.33005e-05
114 *80:14 *82:98 7.35265e-05
115 *80:14 *82:113 0.000165988
*RES
1 *701:X *82:10 15.5857 
2 *82:10 *82:20 24.6607 
3 *82:20 *774:B 16.3536 
4 *82:20 *711:C 16.7732 
5 *82:10 *82:46 9.6875 
6 *82:46 *710:A2 22.6326 
7 *82:46 *82:67 14.7946 
8 *82:67 *704:A3 49.7643 
9 *82:67 *82:98 20.3214 
10 *82:98 *780:A2_N 14.0857 
11 *82:98 *82:113 24.75 
12 *82:113 *716:A2_N 33.8536 
13 *82:113 *82:126 3.16071 
14 *82:126 *775:A2 18.8536 
15 *82:126 *82:141 27.125 
16 *82:141 *773:A 9.3 
17 *82:141 *82:154 17.25 
18 *82:154 *702:B 9.3 
19 *82:154 *713:C 16.3536 
*END

*D_NET *83 0.0191207
*CONN
*I *709:A2 I *D sky130_fd_sc_hd__a21oi_1
*I *705:A3 I *D sky130_fd_sc_hd__o31ai_1
*I *702:Y O *D sky130_fd_sc_hd__nand4b_2
*CAP
1 *709:A2 3.68608e-05
2 *705:A3 0.000309098
3 *702:Y 0.00262548
4 *83:26 0.00174369
5 *83:18 0.00147145
6 *83:16 0.00262548
7 *705:A3 *705:A1 8.17274e-05
8 *705:A3 *131:24 0.000227532
9 *709:A2 *695:A 5.04841e-06
10 *709:A2 *770:C 0
11 *83:16 *715:B 0
12 *83:16 *738:A3 0.00195218
13 *83:16 *762:A2 0.000330044
14 *83:16 *770:B 2.80538e-05
15 *83:16 *842:A 3.4323e-06
16 *83:16 *103:30 5.79176e-06
17 *83:16 *110:43 5.74322e-05
18 *83:16 *113:26 4.10533e-05
19 *83:16 *123:16 0.00117491
20 *83:16 *123:65 0
21 *83:16 *130:141 0.000627129
22 *83:16 *132:81 0
23 *83:16 *134:25 1.73191e-05
24 *83:16 *156:18 8.92205e-05
25 *83:26 *695:A 1.21258e-05
26 *83:26 *164:85 9.60875e-05
27 *83:26 *168:84 0.00237174
28 *695:D *83:26 0.000130931
29 *701:A *83:16 0.000155374
30 *705:A2 *705:A3 3.47984e-05
31 *817:D *83:16 2.32566e-05
32 *824:D *83:16 0
33 *22:10 *83:16 0.000851901
34 *71:18 *83:16 0.000667377
35 *75:25 *83:26 1.10868e-05
36 *75:56 *83:16 5.54655e-05
37 *75:56 *83:26 0.000116288
38 *77:14 *83:16 0.000173392
39 *77:14 *83:26 0.000395267
40 *82:141 *83:16 5.70525e-05
41 *82:154 *83:16 0.000515655
*RES
1 *702:Y *83:16 45.8794 
2 *83:16 *83:18 4.5 
3 *83:18 *83:26 47.9464 
4 *83:26 *705:A3 14.7643 
5 *83:18 *709:A2 10.0321 
*END

*D_NET *84 0.00733773
*CONN
*I *704:B1 I *D sky130_fd_sc_hd__a31o_1
*I *703:Y O *D sky130_fd_sc_hd__inv_2
*CAP
1 *704:B1 0
2 *703:Y 0.00167111
3 *84:10 0.00167111
4 *84:10 *692:D 0.00032084
5 *84:10 *703:A 2.59355e-05
6 *84:10 *762:B1 0.000147091
7 *84:10 *790:A 0.000348085
8 *84:10 *118:22 2.06178e-05
9 *84:10 *143:55 6.57032e-05
10 *84:10 *145:40 0.000849426
11 *84:10 *150:10 0.00126781
12 *84:10 *154:46 6.91881e-05
13 *84:10 *166:22 0.000446644
14 *84:10 *166:55 0.000238769
15 *26:18 *84:10 0.000195391
*RES
1 *703:Y *84:10 47.7286 
2 *84:10 *704:B1 13.8 
*END

*D_NET *85 0.00754777
*CONN
*I *705:B1 I *D sky130_fd_sc_hd__o31ai_1
*I *704:X O *D sky130_fd_sc_hd__a31o_1
*CAP
1 *705:B1 0.000782643
2 *704:X 0.00100626
3 *85:10 0.0017889
4 *705:B1 *741:A 5.20751e-05
5 *705:B1 *815:CLK 0.000137983
6 *705:B1 *143:26 1.50316e-05
7 *85:10 *710:B1 4.25523e-05
8 *85:10 *731:A2 5.92338e-05
9 *85:10 *762:A2 6.30931e-05
10 *85:10 *95:37 1.70452e-05
11 *85:10 *96:39 0.000489237
12 *85:10 *98:16 0.00136597
13 *85:10 *149:8 0.000154583
14 *85:10 *149:24 0.000498995
15 *85:10 *166:22 0
16 *85:10 *167:16 7.30957e-06
17 *85:10 *174:10 0.000140967
18 *700:B *85:10 0.000129259
19 *815:D *705:B1 0.000157102
20 *70:16 *85:10 7.92219e-05
21 *74:14 *85:10 9.15842e-06
22 *75:56 *85:10 0.000386973
23 *81:26 *85:10 0.000164175
*RES
1 *704:X *85:10 48.4786 
2 *85:10 *705:B1 18.7821 
*END

*D_NET *86 0.0104385
*CONN
*I *707:B I *D sky130_fd_sc_hd__xor2_1
*I *709:B1 I *D sky130_fd_sc_hd__a21oi_1
*I *706:X O *D sky130_fd_sc_hd__and4_1
*CAP
1 *707:B 8.96308e-05
2 *709:B1 0.000232604
3 *706:X 0
4 *86:20 0.00259
5 *86:4 0.00244703
6 *707:B *690:C 0.00010258
7 *707:B *707:A 9.71197e-05
8 *707:B *773:B 0.000123295
9 *709:B1 *715:B 0
10 *709:B1 *842:A 0
11 *709:B1 *91:22 0.000118388
12 *86:20 *690:B 0.0010444
13 *86:20 *776:B 5.52302e-05
14 *86:20 *824:CLK 9.71197e-05
15 *86:20 *842:A 0
16 *86:20 *116:20 0.000178847
17 *86:20 *126:16 0.000274079
18 *86:20 *140:30 0.000296108
19 *86:20 *167:16 0.000686881
20 *86:20 *167:58 4.43256e-05
21 *817:D *709:B1 0.000284103
22 *824:D *86:20 6.05023e-05
23 *56:18 *707:B 2.49484e-05
24 *77:22 *709:B1 0.000484398
25 *77:22 *86:20 0.000186636
26 *77:30 *86:20 0.000894375
27 *77:86 *86:20 2.58997e-05
*RES
1 *706:X *86:4 9.3 
2 *86:4 *86:20 49.9018 
3 *86:20 *709:B1 21.1125 
4 *86:4 *707:B 20.8893 
*END

*D_NET *87 0.00878378
*CONN
*I *709:A1 I *D sky130_fd_sc_hd__a21oi_1
*I *728:A I *D sky130_fd_sc_hd__nand2_1
*I *708:Y O *D sky130_fd_sc_hd__inv_2
*CAP
1 *709:A1 0.00133513
2 *728:A 0.000611582
3 *708:Y 0
4 *87:6 0.00194672
5 *709:A1 *689:A 0.000322324
6 *709:A1 *695:A 0.000113933
7 *709:A1 *762:A1 7.49305e-05
8 *709:A1 *762:A2 4.58194e-05
9 *709:A1 *770:A 1.03037e-05
10 *709:A1 *770:C 1.21258e-05
11 *709:A1 *770:D 5.33005e-05
12 *709:A1 *818:CLK 9.41642e-05
13 *709:A1 *110:16 0.000322672
14 *709:A1 *132:56 0.000810995
15 *709:A1 *157:14 0.000191738
16 *728:A *688:D 0.000136682
17 *728:A *708:A 0.000300301
18 *728:A *789:A 7.31147e-05
19 *728:A *848:A 0.000137983
20 *728:A *105:14 0.000103798
21 *728:A *129:49 2.42662e-05
22 *728:A *132:6 3.97677e-05
23 *728:A *132:12 4.87854e-05
24 *728:A *132:56 9.25014e-06
25 *728:A *141:37 0.000187589
26 *728:A *157:14 0.000974188
27 *728:A *158:20 9.01557e-05
28 *815:RESET_B *728:A 0.000690962
29 *70:16 *709:A1 2.11972e-05
*RES
1 *708:Y *87:6 13.8 
2 *87:6 *728:A 34.05 
3 *87:6 *709:A1 36.8714 
*END

*D_NET *88 0.00241771
*CONN
*I *712:A I *D sky130_fd_sc_hd__nor2_1
*I *710:Y O *D sky130_fd_sc_hd__a21oi_1
*CAP
1 *712:A 0.000633707
2 *710:Y 0.000633707
3 *712:A *694:D 0.00060108
4 *712:A *710:B1 0.000141729
5 *712:A *720:A 0
6 *712:A *107:18 0
7 *712:A *142:45 0.000207973
8 *712:A *143:26 0.000100413
9 *58:10 *712:A 9.91033e-05
*RES
1 *710:Y *712:A 42.2429 
*END

*D_NET *89 0.0155854
*CONN
*I *712:B I *D sky130_fd_sc_hd__nor2_1
*I *714:A2 I *D sky130_fd_sc_hd__o21ba_1
*I *711:X O *D sky130_fd_sc_hd__and3_1
*CAP
1 *712:B 0.000272003
2 *714:A2 0
3 *711:X 6.29851e-05
4 *89:42 0.00126077
5 *89:18 0.00238507
6 *89:8 0.00145929
7 *712:B *823:CLK 0.000135502
8 *712:B *94:16 0.000856089
9 *712:B *131:16 0.000264079
10 *89:8 *823:CLK 0.000172793
11 *89:18 *699:B 2.66057e-05
12 *89:18 *724:B 0.000566807
13 *89:18 *760:A1 0.00016004
14 *89:18 *768:A 0.00073396
15 *89:18 *769:A1 0.000197982
16 *89:18 *96:39 0.00133729
17 *89:18 *110:130 0.000680491
18 *89:18 *148:62 9.01618e-05
19 *89:18 *175:12 0.000972549
20 *89:42 *689:A 3.69047e-06
21 *89:42 *699:B 2.2628e-05
22 *89:42 *714:A1 0.000335668
23 *89:42 *714:B1_N 9.58126e-05
24 *89:42 *814:CLK 0.000182266
25 *89:42 *116:59 0.00012556
26 *89:42 *123:65 0.000225982
27 *89:42 *126:16 9.80363e-06
28 *89:42 *129:102 1.58163e-05
29 *89:42 *129:109 9.37606e-06
30 *89:42 *136:32 0.000488888
31 *89:42 *142:136 0.000217163
32 *89:42 *148:62 0.000432163
33 *89:42 *151:14 0.00049189
34 *89:42 *158:20 1.65169e-05
35 *89:42 *168:60 7.09928e-05
36 *89:42 *173:27 0.000100823
37 *739:A_N *712:B 0.000347785
38 *818:RESET_B *89:18 0.000212414
39 *820:RESET_B *89:42 3.9968e-05
40 *822:D *712:B 0.000144038
41 *822:D *89:8 3.17148e-05
42 *822:D *89:18 5.33005e-05
43 *18:10 *89:8 7.06793e-05
44 *34:14 *89:42 2.99773e-05
45 *49:8 *89:42 9.77072e-05
46 *82:20 *89:18 7.82664e-05
*RES
1 *711:X *89:8 16.05 
2 *89:8 *89:18 46.4018 
3 *89:18 *89:42 49.4732 
4 *89:42 *714:A2 9.3 
5 *89:8 *712:B 24.0857 
*END

*D_NET *90 0.013346
*CONN
*I *716:B1 I *D sky130_fd_sc_hd__o2bb2a_1
*I *714:B1_N I *D sky130_fd_sc_hd__o21ba_1
*I *713:X O *D sky130_fd_sc_hd__and3_1
*CAP
1 *716:B1 0.000665423
2 *714:B1_N 5.25379e-05
3 *713:X 0.000547824
4 *90:29 0.00160487
5 *90:12 0.00153981
6 *714:B1_N *123:65 3.97677e-05
7 *714:B1_N *168:60 0.000180151
8 *716:B1 *688:B 0.0001399
9 *716:B1 *716:A1_N 2.90178e-05
10 *716:B1 *716:B2 5.90898e-05
11 *716:B1 *810:A 0.000600379
12 *716:B1 *128:43 0.000292554
13 *716:B1 *128:54 4.08637e-05
14 *716:B1 *154:27 9.71197e-05
15 *90:12 *713:A 0.000161608
16 *90:12 *123:65 0.00014564
17 *90:12 *129:129 0.000167361
18 *90:12 *152:67 0.000709187
19 *90:12 *153:33 0.000356427
20 *90:12 *168:60 0.000301094
21 *90:29 *688:A 0.00110905
22 *90:29 *151:14 0.00132027
23 *90:29 *152:50 3.38861e-06
24 *90:29 *154:27 1.19191e-05
25 *716:A2_N *716:B1 0.000514195
26 *813:RESET_B *90:29 1.93337e-05
27 *822:RESET_B *90:29 0.00103176
28 *829:RESET_B *90:12 0.000250774
29 *43:38 *90:29 0.0012589
30 *89:42 *714:B1_N 9.58126e-05
*RES
1 *713:X *90:12 35.0857 
2 *90:12 *714:B1_N 11.0679 
3 *90:12 *90:29 42.375 
4 *90:29 *716:B1 23.8179 
*END

*D_NET *91 0.022348
*CONN
*I *718:A1 I *D sky130_fd_sc_hd__a21o_1
*I *716:A1_N I *D sky130_fd_sc_hd__o2bb2a_1
*I *715:X O *D sky130_fd_sc_hd__and3_1
*CAP
1 *718:A1 0.00148425
2 *716:A1_N 0.00306208
3 *715:X 0.00137291
4 *91:40 0.00591132
5 *91:22 0.00273789
6 *716:A1_N *716:B2 8.03994e-06
7 *716:A1_N *723:A 0.000131767
8 *716:A1_N *753:A 0
9 *716:A1_N *95:25 0
10 *716:A1_N *103:30 0.000666597
11 *716:A1_N *119:29 0.000144507
12 *716:A1_N *123:65 0.000358654
13 *716:A1_N *141:79 0.000177436
14 *716:A1_N *142:168 0.000130975
15 *716:A1_N *169:54 0.000114602
16 *718:A1 *753:A 0
17 *718:A1 *772:B1 2.16401e-05
18 *718:A1 *825:CLK 2.30314e-05
19 *718:A1 *95:75 4.38243e-05
20 *718:A1 *123:65 0.00073337
21 *718:A1 *134:31 9.15496e-05
22 *91:22 *715:A 0.000265205
23 *91:22 *715:C 0.000508024
24 *91:22 *762:B1 0.00122847
25 *91:22 *159:39 0.00153853
26 *91:40 *767:A 0.000163989
27 *91:40 *846:A 8.25843e-06
28 *91:40 *95:75 2.04825e-05
29 *91:40 *123:65 0
30 *91:40 *130:107 6.58587e-05
31 *91:40 *136:32 1.58163e-05
32 *709:B1 *91:22 0.000118388
33 *713:C *718:A1 5.33005e-05
34 *716:B1 *716:A1_N 2.90178e-05
35 *821:RESET_B *716:A1_N 0.000433184
36 *832:RESET_B *718:A1 0
37 *836:RESET_B *91:40 0.000271983
38 *839:D *716:A1_N 4.5534e-05
39 *24:16 *91:40 0
40 *29:14 *91:22 9.56112e-05
41 *43:14 *91:40 0
42 *73:16 *716:A1_N 0.000264203
43 *82:141 *91:40 7.69776e-06
*RES
1 *715:X *91:22 45.9429 
2 *91:22 *91:40 32.8833 
3 *91:40 *716:A1_N 27.8537 
4 *91:40 *718:A1 24.614 
*END

*D_NET *92 0.0212029
*CONN
*I *719:A I *D sky130_fd_sc_hd__and2_1
*I *721:B I *D sky130_fd_sc_hd__xnor2_1
*I *717:Y O *D sky130_fd_sc_hd__nand2_1
*CAP
1 *719:A 0.000858332
2 *721:B 0
3 *717:Y 0.000964298
4 *92:38 0.00425298
5 *92:14 0.00607561
6 *719:A *93:26 0.000134168
7 *719:A *95:25 0
8 *719:A *95:75 0
9 *719:A *130:18 0
10 *719:A *159:10 0.000309347
11 *719:A *159:23 0.000540192
12 *719:A *164:32 0.000500543
13 *92:14 *738:B1 0.000138876
14 *92:14 *855:A 0.00104645
15 *92:14 *144:18 0.000134991
16 *92:14 *145:55 0.000100248
17 *92:38 *734:A 0
18 *92:38 *737:A 0
19 *92:38 *738:A1 0.000144359
20 *92:38 *755:B 9.22204e-05
21 *92:38 *829:CLK 2.06178e-05
22 *92:38 *855:A 0.00123979
23 *92:38 *96:39 7.34739e-05
24 *92:38 *114:26 0.00146945
25 *92:38 *116:59 0
26 *92:38 *118:22 0.000725743
27 *92:38 *126:63 9.58126e-05
28 *92:38 *149:24 0.000723148
29 *92:38 *158:20 0.000119924
30 *92:38 *161:67 1.16198e-05
31 *92:38 *162:29 0
32 *700:B *92:38 0
33 *717:B *92:14 2.05823e-05
34 *818:RESET_B *92:38 0.000271405
35 *819:RESET_B *92:38 0
36 *822:RESET_B *719:A 0.000479461
37 *835:D *719:A 7.04292e-05
38 *838:RESET_B *719:A 0.00024609
39 *38:18 *719:A 5.56776e-05
40 *45:32 *92:38 2.63501e-05
41 *61:18 *719:A 0.000168956
42 *66:10 *719:A 0
43 *80:14 *92:38 9.18028e-05
*RES
1 *717:Y *92:14 35.05 
2 *92:14 *92:38 47.3638 
3 *92:38 *721:B 9.3 
4 *92:14 *719:A 42.4607 
*END

*D_NET *93 0.0138938
*CONN
*I *719:B I *D sky130_fd_sc_hd__and2_1
*I *718:X O *D sky130_fd_sc_hd__a21o_1
*CAP
1 *719:B 0
2 *718:X 0.00326904
3 *93:26 0.00326904
4 *93:26 *718:B1 0.000110238
5 *93:26 *753:A 0.00417019
6 *93:26 *825:CLK 0.000110238
7 *93:26 *104:22 2.06112e-05
8 *93:26 *134:31 9.00639e-05
9 *93:26 *152:35 0
10 *93:26 *159:23 0.000239864
11 *719:A *93:26 0.000134168
12 *832:RESET_B *93:26 0.00225786
13 *840:RESET_B *93:26 0.000111261
14 *38:18 *93:26 0.000111243
*RES
1 *718:X *93:26 44.5273 
2 *93:26 *719:B 9.3 
*END

*D_NET *94 0.00771436
*CONN
*I *720:A I *D sky130_fd_sc_hd__buf_1
*I *719:X O *D sky130_fd_sc_hd__and2_1
*CAP
1 *720:A 0.000600111
2 *719:X 0.00118459
3 *94:16 0.0017847
4 *720:A *106:50 0.000206587
5 *720:A *107:18 0.00100069
6 *720:A *143:26 0.000105537
7 *94:16 *771:A1_N 0.000121573
8 *94:16 *771:B2 0.000221634
9 *94:16 *131:16 0.000108286
10 *94:16 *135:66 2.26424e-05
11 *94:16 *164:32 0.00051226
12 *710:A2 *720:A 1.94945e-05
13 *712:A *720:A 0
14 *712:B *94:16 0.000856089
15 *739:A_N *94:16 0.000367553
16 *831:D *94:16 7.6644e-05
17 *33:16 *94:16 0.000525974
*RES
1 *719:X *94:16 47.6929 
2 *94:16 *720:A 28.8536 
*END

*D_NET *95 0.0255865
*CONN
*I *726:B I *D sky130_fd_sc_hd__nor2_1
*I *728:B I *D sky130_fd_sc_hd__nand2_1
*I *731:A2 I *D sky130_fd_sc_hd__a21boi_1
*I *723:B I *D sky130_fd_sc_hd__nand2_1
*I *722:Y O *D sky130_fd_sc_hd__nor2_2
*CAP
1 *726:B 0
2 *728:B 0
3 *731:A2 0.0014872
4 *723:B 0
5 *722:Y 0.000576502
6 *95:75 0.0015702
7 *95:37 0.00339327
8 *95:25 0.00446539
9 *95:8 0.00156563
10 *731:A2 *694:D 0
11 *731:A2 *698:A2 0
12 *731:A2 *98:16 2.50463e-05
13 *731:A2 *99:24 0.000167625
14 *731:A2 *106:58 0.000213974
15 *731:A2 *117:16 6.35864e-05
16 *731:A2 *143:26 2.49484e-05
17 *731:A2 *146:22 0
18 *731:A2 *158:14 0.000177171
19 *731:A2 *165:10 0.000132463
20 *731:A2 *166:8 9.83388e-05
21 *731:A2 *166:14 0
22 *731:A2 *166:22 0.000269484
23 *95:8 *722:A 0.00107077
24 *95:8 *856:A 0
25 *95:8 *164:12 0.000243104
26 *95:25 *722:A 3.52836e-05
27 *95:25 *130:14 0.000149763
28 *95:25 *130:18 0.000185199
29 *95:37 *698:A2 0.000638226
30 *95:37 *113:26 0
31 *95:37 *146:53 1.90269e-05
32 *95:37 *152:35 0.000223607
33 *95:37 *166:22 1.11775e-05
34 *95:37 *174:10 2.11419e-05
35 *95:75 *690:D 4.22367e-05
36 *95:75 *753:A 0.00013883
37 *95:75 *825:CLK 8.70963e-05
38 *95:75 *123:65 2.06791e-05
39 *95:75 *130:12 0.000742528
40 *95:75 *130:14 0.000344255
41 AN[0] *95:8 0
42 seg[6] *95:8 0
43 *701:A *731:A2 5.00887e-05
44 *702:A_N *95:75 8.18725e-05
45 *716:A1_N *95:25 0
46 *718:A1 *95:75 4.38243e-05
47 *718:A2 *95:75 0.000119764
48 *719:A *95:25 0
49 *719:A *95:75 0
50 *831:D *95:37 0.000787734
51 *843:A *731:A2 7.10794e-05
52 *32:10 *95:75 0.000754055
53 *33:16 *731:A2 0.000287543
54 *61:18 *95:37 0.000830786
55 *61:18 *95:75 0.00322068
56 *64:14 *95:8 0
57 *64:14 *95:25 0
58 *68:10 *95:75 0.000633656
59 *80:24 *731:A2 0.000216384
60 *82:20 *731:A2 8.91963e-06
61 *82:141 *95:75 0.000179624
62 *85:10 *731:A2 5.92338e-05
63 *85:10 *95:37 1.70452e-05
64 *91:40 *95:75 2.04825e-05
*RES
1 *722:Y *95:8 29.1036 
2 *95:8 *723:B 13.8 
3 *95:8 *95:25 13.2637 
4 *95:25 *95:37 12.116 
5 *95:37 *731:A2 43.5168 
6 *95:37 *728:B 13.8 
7 *95:25 *95:75 51.5804 
8 *95:75 *726:B 13.8 
*END

*D_NET *96 0.0171027
*CONN
*I *727:B1 I *D sky130_fd_sc_hd__o21a_1
*I *724:B I *D sky130_fd_sc_hd__nor2_1
*I *723:Y O *D sky130_fd_sc_hd__nand2_1
*CAP
1 *727:B1 0
2 *724:B 0.000581746
3 *723:Y 0.00177664
4 *96:39 0.0016963
5 *96:12 0.00405468
6 *724:B *757:A 2.16573e-05
7 *724:B *768:A 0.000102922
8 *724:B *768:D 2.02282e-05
9 *724:B *97:14 0.000143633
10 *724:B *110:130 8.73206e-05
11 *724:B *135:66 1.8584e-05
12 *724:B *148:62 0.000790389
13 *96:12 *723:A 1.92905e-05
14 *96:12 *827:CLK 7.40432e-05
15 *96:12 *104:22 0.000431186
16 *96:12 *146:22 0.000259273
17 *96:12 *146:53 5.7912e-05
18 *96:12 *154:8 6.64875e-05
19 *96:39 *727:A2 9.83388e-05
20 *96:39 *737:A 0.000108889
21 *96:39 *738:A1 0.000133706
22 *96:39 *784:A 0.000852435
23 *96:39 *118:22 0
24 *96:39 *142:20 0.000135028
25 *96:39 *145:16 0.000321014
26 *96:39 *148:62 0.00132876
27 *827:D *96:12 0.000152811
28 *835:RESET_B *96:12 0.000109643
29 *70:16 *96:39 0.000487412
30 *80:14 *96:39 0.000705514
31 *85:10 *96:39 0.000489237
32 *89:18 *724:B 0.000566807
33 *89:18 *96:39 0.00133729
34 *92:38 *96:39 7.34739e-05
*RES
1 *723:Y *96:12 37.4786 
2 *96:12 *724:B 28.5857 
3 *96:12 *96:39 45.5086 
4 *96:39 *727:B1 9.3 
*END

*D_NET *97 0.0120482
*CONN
*I *729:C I *D sky130_fd_sc_hd__or3_1
*I *725:C1 I *D sky130_fd_sc_hd__a2111o_1
*I *724:Y O *D sky130_fd_sc_hd__nor2_1
*CAP
1 *729:C 0
2 *725:C1 0
3 *724:Y 0.00111203
4 *97:36 0.00151701
5 *97:16 0.00151701
6 *97:14 0.00111203
7 *97:14 *724:A 9.60337e-06
8 *97:14 *729:A 0.00020042
9 *97:14 *757:A 0.000168823
10 *97:14 *771:A1_N 0.000452144
11 *97:14 *771:A2_N 0.000288213
12 *97:14 *774:A 0.000103267
13 *97:14 *110:126 0.000411144
14 *97:14 *135:66 5.08826e-05
15 *97:14 *145:18 0.000167916
16 *97:14 *145:40 0.000144224
17 *97:14 *148:62 0.0010817
18 *97:14 *152:35 0.000126706
19 *97:14 *154:46 0.000524386
20 *97:36 *725:A1 0.000305466
21 *97:36 *725:A2 4.27338e-05
22 *97:36 *725:D1 5.33005e-05
23 *97:36 *733:B 0.000297773
24 *97:36 *750:A 0.000416759
25 *97:36 *817:CLK 0.000185714
26 *97:36 *820:CLK 0.000137561
27 *97:36 *145:18 0.000118986
28 *97:36 *158:20 0.000385699
29 *97:36 *166:55 9.47166e-05
30 *97:36 *167:16 0.000102184
31 *97:36 *173:6 9.93586e-05
32 *97:36 *173:27 6.3211e-05
33 *724:B *97:14 0.000143633
34 *831:D *97:14 6.97337e-05
35 *75:56 *97:36 0.000534048
36 *81:26 *97:36 9.77264e-06
*RES
1 *724:Y *97:14 48.1214 
2 *97:14 *97:16 4.5 
3 *97:16 *97:36 45.4464 
4 *97:36 *725:C1 9.3 
5 *97:16 *729:C 9.3 
*END

*D_NET *98 0.00835232
*CONN
*I *730:A I *D sky130_fd_sc_hd__clkbuf_1
*I *729:X O *D sky130_fd_sc_hd__or3_1
*CAP
1 *730:A 0.000648736
2 *729:X 0.00127351
3 *98:16 0.00192225
4 *730:A *104:22 0.000107995
5 *730:A *146:22 4.27437e-05
6 *98:16 *737:A 0.000123605
7 *98:16 *110:16 5.49544e-05
8 *98:16 *110:126 0.00013833
9 *98:16 *117:16 6.67893e-05
10 *98:16 *143:26 5.83304e-05
11 *98:16 *166:55 0.000587962
12 *731:A2 *98:16 2.50463e-05
13 *741:B *730:A 0.000344523
14 *837:D *98:16 2.51343e-06
15 *75:56 *98:16 0.000245834
16 *80:24 *98:16 0.00134324
17 *85:10 *98:16 0.00136597
*RES
1 *729:X *98:16 49.3893 
2 *98:16 *730:A 20.1036 
*END

*D_NET *99 0.0140026
*CONN
*I *735:A I *D sky130_fd_sc_hd__and2_1
*I *737:B I *D sky130_fd_sc_hd__xnor2_1
*I *733:Y O *D sky130_fd_sc_hd__nand2_1
*CAP
1 *735:A 1.99857e-05
2 *737:B 0
3 *733:Y 0.00132946
4 *99:24 0.00104838
5 *99:14 0.00239783
6 *735:A *817:CLK 1.04232e-05
7 *99:14 *689:A 0.000143745
8 *99:14 *715:C 4.52865e-05
9 *99:14 *733:B 0.000156493
10 *99:14 *817:CLK 0.000977685
11 *99:14 *101:10 0.000873108
12 *99:14 *109:14 8.43535e-06
13 *99:14 *123:65 4.15592e-05
14 *99:14 *133:10 8.14151e-05
15 *99:14 *135:14 4.58194e-05
16 *99:14 *148:62 0.000568964
17 *99:14 *163:26 0.0010708
18 *99:24 *735:B 8.64727e-05
19 *99:24 *745:B 2.16482e-05
20 *99:24 *817:CLK 2.89114e-05
21 *99:24 *111:12 0.000214074
22 *99:24 *111:18 0.000131166
23 *99:24 *158:14 0.000926735
24 *99:24 *165:48 0.00126121
25 *731:A2 *99:24 0.000167625
26 *822:D *99:24 0.000113415
27 *33:16 *99:24 2.38501e-05
28 *53:12 *99:14 0.000101545
29 *82:20 *99:24 0.000605671
30 *82:46 *99:24 0.000726013
31 *82:67 *99:24 0.000774883
*RES
1 *733:Y *99:14 49.3714 
2 *99:14 *99:24 45.5357 
3 *99:24 *737:B 9.3 
4 *99:14 *735:A 9.72857 
*END

*D_NET *100 0.00406986
*CONN
*I *735:B I *D sky130_fd_sc_hd__and2_1
*I *734:X O *D sky130_fd_sc_hd__or2_1
*CAP
1 *735:B 0.000664849
2 *734:X 0.000664849
3 *735:B *710:A1 6.3629e-05
4 *735:B *837:CLK 0.0008688
5 *735:B *107:18 0.000139287
6 *735:B *111:12 0.0001922
7 *735:B *111:18 0.000317895
8 *735:B *167:16 0.00038233
9 *701:A *735:B 0.000121805
10 *82:67 *735:B 0.000567743
11 *99:24 *735:B 8.64727e-05
*RES
1 *734:X *735:B 47.3679 
*END

*D_NET *101 0.00676781
*CONN
*I *736:A I *D sky130_fd_sc_hd__clkbuf_1
*I *735:X O *D sky130_fd_sc_hd__and2_1
*CAP
1 *736:A 2.76557e-05
2 *735:X 0.00145306
3 *101:10 0.00148072
4 *736:A *143:90 2.89016e-05
5 *101:10 *771:B2 0.000150591
6 *101:10 *820:CLK 0.000285064
7 *101:10 *110:16 4.16948e-05
8 *101:10 *113:26 0.000111243
9 *101:10 *135:66 0.00177674
10 *101:10 *141:37 0.000337269
11 *101:10 *157:14 8.98433e-05
12 *80:14 *101:10 1.5929e-05
13 *82:98 *101:10 9.59912e-05
14 *99:14 *101:10 0.000873108
*RES
1 *735:X *101:10 46.05 
2 *101:10 *736:A 14.3357 
*END

*D_NET *102 0.00506002
*CONN
*I *739:B I *D sky130_fd_sc_hd__and2b_1
*I *738:X O *D sky130_fd_sc_hd__a31o_1
*CAP
1 *739:B 0
2 *738:X 0.00103486
3 *102:12 0.00103486
4 *102:12 *738:B1 0.000556468
5 *102:12 *764:A_N 0.000495423
6 *102:12 *103:30 0.000276418
7 *102:12 *121:12 5.83677e-05
8 *22:20 *102:12 0.00160363
*RES
1 *738:X *102:12 44.5321 
2 *102:12 *739:B 9.3 
*END

*D_NET *103 0.0156385
*CONN
*I *740:A I *D sky130_fd_sc_hd__clkbuf_1
*I *739:X O *D sky130_fd_sc_hd__and2b_1
*CAP
1 *740:A 0
2 *739:X 0.00550859
3 *103:30 0.00550859
4 *103:30 *725:A2 1.62621e-05
5 *103:30 *733:B 0.000236887
6 *103:30 *738:A3 0.000695931
7 *103:30 *753:A 0
8 *103:30 *764:A_N 0.00031812
9 *103:30 *770:C 0.00058029
10 *103:30 *119:29 0.000321332
11 *103:30 *128:18 0.000181142
12 *103:30 *149:24 0
13 *103:30 *165:48 3.42201e-05
14 *103:30 *172:16 4.2855e-05
15 *701:A *103:30 4.07407e-06
16 *716:A1_N *103:30 0.000666597
17 *716:A2_N *103:30 0.000165232
18 *18:20 *103:30 0.00074279
19 *22:20 *103:30 0.000319603
20 *77:14 *103:30 1.37488e-05
21 *83:16 *103:30 5.79176e-06
22 *102:12 *103:30 0.000276418
*RES
1 *739:X *103:30 45.3054 
2 *103:30 *740:A 9.3 
*END

*D_NET *104 0.00800284
*CONN
*I *745:B I *D sky130_fd_sc_hd__nor2_1
*I *743:A I *D sky130_fd_sc_hd__nor2_1
*I *741:X O *D sky130_fd_sc_hd__and2_1
*CAP
1 *745:B 0.000260811
2 *743:A 0
3 *741:X 0
4 *104:22 0.00220876
5 *104:6 0.00246957
6 *745:B *710:A1 5.50052e-05
7 *745:B *130:65 5.50052e-05
8 *745:B *158:14 0.000562976
9 *745:B *165:10 0.000276735
10 *745:B *165:21 0.000331603
11 *745:B *165:48 1.00887e-05
12 *104:22 *758:B 6.27272e-06
13 *104:22 *787:A 0
14 *104:22 *833:CLK 2.89114e-05
15 *104:22 *105:14 6.22573e-05
16 *104:22 *146:22 0.000287889
17 *104:22 *158:14 7.5779e-05
18 *104:22 *165:10 8.00806e-05
19 *730:A *104:22 0.000107995
20 *821:D *104:22 7.20217e-06
21 *40:14 *104:22 0.00064246
22 *45:32 *104:22 0
23 *93:26 *104:22 2.06112e-05
24 *96:12 *104:22 0.000431186
25 *99:24 *745:B 2.16482e-05
*RES
1 *741:X *104:6 13.8 
2 *104:6 *104:22 44.9643 
3 *104:22 *743:A 9.3 
4 *104:6 *745:B 22.3536 
*END

*D_NET *105 0.00661537
*CONN
*I *743:B I *D sky130_fd_sc_hd__nor2_1
*I *742:Y O *D sky130_fd_sc_hd__nor2_1
*CAP
1 *743:B 0
2 *742:Y 0.00183212
3 *105:14 0.00183212
4 *105:14 *688:D 0.00114145
5 *105:14 *787:A 0.000245311
6 *105:14 *789:A 8.68061e-06
7 *105:14 *848:A 0.000137983
8 *105:14 *126:63 0
9 *105:14 *146:53 0.000274558
10 *728:A *105:14 0.000103798
11 *742:B *105:14 1.83136e-05
12 *821:D *105:14 5.66971e-05
13 *40:14 *105:14 0.000902091
14 *104:22 *105:14 6.22573e-05
*RES
1 *742:Y *105:14 49.0679 
2 *105:14 *743:B 9.3 
*END

*D_NET *106 0.0232493
*CONN
*I *751:A2 I *D sky130_fd_sc_hd__a21o_1
*I *746:A I *D sky130_fd_sc_hd__nor2_1
*I *747:B I *D sky130_fd_sc_hd__xor2_1
*I *744:X O *D sky130_fd_sc_hd__and3_2
*CAP
1 *751:A2 0.000636407
2 *746:A 4.50447e-05
3 *747:B 0
4 *744:X 0.000650254
5 *106:58 0.00270774
6 *106:50 0.00407379
7 *106:26 0.00230618
8 *106:16 0.000999015
9 *746:A *107:18 9.83442e-05
10 *746:A *175:12 7.1959e-05
11 *751:A2 *694:C 0.000303092
12 *751:A2 *751:A1 5.52238e-05
13 *751:A2 *751:B1 0.000164334
14 *751:A2 *144:87 0.000333082
15 *106:16 *725:A2 3.97677e-05
16 *106:16 *842:A 0
17 *106:16 *145:91 1.81805e-05
18 *106:16 *164:85 0.00012401
19 *106:16 *170:16 0
20 *106:26 *144:87 6.05161e-06
21 *106:26 *145:16 0.000200406
22 *106:26 *145:91 0.000311495
23 *106:26 *164:85 0.000335541
24 *106:50 *710:A1 0.000150103
25 *106:50 *107:18 0.00067949
26 *106:50 *130:65 1.345e-05
27 *106:50 *142:58 1.5942e-05
28 *106:50 *143:34 6.30361e-05
29 *106:50 *143:55 0.000196458
30 *106:50 *145:40 5.86821e-06
31 *106:50 *175:10 0.000451419
32 *106:58 *694:D 0
33 *106:58 *731:A1 5.44204e-05
34 *106:58 *747:A 0.00026111
35 *106:58 *760:A3 0
36 *106:58 *107:18 3.31535e-05
37 *106:58 *142:58 7.88706e-05
38 *106:58 *176:10 1.00887e-05
39 *705:A2 *106:50 0.000129868
40 *710:A2 *106:50 0.000112284
41 *720:A *106:50 0.000206587
42 *731:A2 *106:58 0.000213974
43 *823:D *106:58 0.00225876
44 *823:RESET_B *106:58 5.64982e-05
45 *28:12 *106:26 0.000277516
46 *28:12 *106:50 0.000451359
47 *31:12 *106:50 0.000667524
48 *31:20 *106:16 0.00127014
49 *75:25 *106:16 0.00143425
50 *76:12 *106:26 0.000593626
51 *80:24 *106:58 2.83051e-05
52 *81:26 *106:16 5.52302e-05
*RES
1 *744:X *106:16 43.9607 
2 *106:16 *106:26 17.5714 
3 *106:26 *106:50 38.4088 
4 *106:50 *106:58 45.3393 
5 *106:58 *747:B 9.3 
6 *106:50 *746:A 15.1571 
7 *106:26 *751:A2 20.5321 
*END

*D_NET *107 0.00507802
*CONN
*I *746:B I *D sky130_fd_sc_hd__nor2_1
*I *745:Y O *D sky130_fd_sc_hd__nor2_1
*CAP
1 *746:B 0
2 *745:Y 0.000869185
3 *107:18 0.000869185
4 *107:18 *694:D 0
5 *107:18 *710:A1 0.000476451
6 *107:18 *143:34 0.000403439
7 *107:18 *145:40 0.000137639
8 *107:18 *175:12 1.10868e-05
9 *705:A2 *107:18 0.000126439
10 *710:A2 *107:18 2.09897e-05
11 *712:A *107:18 0
12 *720:A *107:18 0.00100069
13 *735:B *107:18 0.000139287
14 *746:A *107:18 9.83442e-05
15 *822:D *107:18 3.08664e-05
16 *31:12 *107:18 0.000181778
17 *106:50 *107:18 0.00067949
18 *106:58 *107:18 3.31535e-05
*RES
1 *745:Y *107:18 44.6393 
2 *107:18 *746:B 9.3 
*END

*D_NET *108 0.00615397
*CONN
*I *749:C I *D sky130_fd_sc_hd__and3_1
*I *748:X O *D sky130_fd_sc_hd__and3_1
*CAP
1 *749:C 0
2 *748:X 0.00061106
3 *108:14 0.00061106
4 *108:14 *748:A 0.000445853
5 *108:14 *748:B 0.00226828
6 *108:14 *749:A 9.25014e-06
7 *108:14 *753:A 0.000106828
8 *108:14 *767:A 0
9 *108:14 *767:C 0.00025452
10 *108:14 *799:A 1.52217e-05
11 *108:14 *141:100 0.0017914
12 *108:14 *161:46 2.0954e-05
13 *108:14 *166:71 0
14 *108:14 *167:58 0
15 *825:RESET_B *108:14 1.95435e-05
*RES
1 *748:X *108:14 45.8714 
2 *108:14 *749:C 9.3 
*END

*D_NET *109 0.00773253
*CONN
*I *763:B I *D sky130_fd_sc_hd__nand2_1
*I *750:A I *D sky130_fd_sc_hd__buf_2
*I *749:X O *D sky130_fd_sc_hd__and3_1
*CAP
1 *763:B 0
2 *750:A 0.000707539
3 *749:X 0.000701534
4 *109:14 0.00140907
5 *750:A *733:B 7.18171e-05
6 *750:A *820:CLK 5.33005e-05
7 *750:A *110:43 1.89903e-05
8 *750:A *110:58 0.000343958
9 *750:A *113:26 0.000242828
10 *750:A *119:10 0.00048326
11 *750:A *135:60 5.81077e-05
12 *750:A *135:66 0.000781396
13 *750:A *139:76 1.99394e-05
14 *750:A *156:18 1.16107e-05
15 *750:A *163:26 6.73386e-05
16 *750:A *166:55 5.49544e-05
17 *109:14 *733:B 1.33343e-05
18 *109:14 *846:A 0.000222666
19 *109:14 *116:20 0.000166352
20 *109:14 *130:107 3.97677e-05
21 *109:14 *133:30 3.13225e-05
22 *109:14 *135:14 0.000260574
23 *109:14 *161:46 0.000357003
24 *109:14 *162:12 0.000294569
25 *109:14 *167:58 0.000624216
26 *53:12 *109:14 0.000271886
27 *97:36 *750:A 0.000416759
28 *99:14 *109:14 8.43535e-06
*RES
1 *749:X *109:14 36.0679 
2 *109:14 *750:A 38.3893 
3 *109:14 *763:B 9.3 
*END

*D_NET *110 0.0340668
*CONN
*I *761:A2 I *D sky130_fd_sc_hd__a21boi_1
*I *771:A2_N I *D sky130_fd_sc_hd__o2bb2a_1
*I *760:A3 I *D sky130_fd_sc_hd__a31o_1
*I *768:D I *D sky130_fd_sc_hd__and4_1
*I *772:A2 I *D sky130_fd_sc_hd__a21oi_1
*I *767:D I *D sky130_fd_sc_hd__and4_1
*I *752:A_N I *D sky130_fd_sc_hd__and2b_1
*I *755:B I *D sky130_fd_sc_hd__nand2_1
*I *754:B I *D sky130_fd_sc_hd__nor2_1
*I *762:A2 I *D sky130_fd_sc_hd__a21oi_1
*I *750:X O *D sky130_fd_sc_hd__buf_2
*CAP
1 *761:A2 0.000382262
2 *771:A2_N 0.000232824
3 *760:A3 0.00102623
4 *768:D 3.8505e-05
5 *772:A2 0.000888128
6 *767:D 0
7 *752:A_N 0.00107157
8 *755:B 0.000264697
9 *754:B 2.96003e-05
10 *762:A2 0.000629554
11 *750:X 0
12 *110:143 0.00141957
13 *110:130 0.000522857
14 *110:126 0.0016225
15 *110:98 0.00221438
16 *110:60 0.00147174
17 *110:58 0.00230164
18 *110:43 0.00124599
19 *110:16 0.00155481
20 *110:4 0.00146518
21 *752:A_N *696:C 0.000756229
22 *752:A_N *851:A 5.52238e-05
23 *752:A_N *111:18 2.2351e-05
24 *752:A_N *148:10 0
25 *752:A_N *170:16 0.000446852
26 *754:B *830:CLK 3.50746e-05
27 *754:B *168:60 1.32693e-05
28 *754:B *168:82 2.36413e-05
29 *755:B *696:C 2.23393e-05
30 *755:B *114:26 2.23112e-05
31 *760:A3 *694:D 1.8038e-05
32 *760:A3 *724:A 0.000251506
33 *760:A3 *737:A 3.30056e-05
34 *760:A3 *747:A 6.89689e-06
35 *760:A3 *758:B 0.000108126
36 *760:A3 *114:26 1.64619e-05
37 *760:A3 *142:75 0.00158245
38 *761:A2 *761:B1_N 0.000351105
39 *761:A2 *810:A 8.72372e-05
40 *761:A2 *146:53 5.26224e-05
41 *762:A2 *762:B1 4.14788e-05
42 *762:A2 *770:A 4.58194e-05
43 *762:A2 *770:B 0.000535339
44 *762:A2 *132:81 1.73201e-05
45 *768:D *768:A 4.5258e-05
46 *771:A2_N *135:66 8.12454e-05
47 *772:A2 *772:A1 1.02504e-05
48 *772:A2 *799:A 0.000195334
49 *772:A2 *852:A 0.000153016
50 *772:A2 *121:8 0.000141684
51 *772:A2 *141:92 0
52 *110:16 *689:A 0.000329989
53 *110:16 *820:CLK 0.000329993
54 *110:16 *132:56 2.80675e-05
55 *110:16 *139:12 6.35443e-06
56 *110:16 *139:14 0.000331027
57 *110:16 *157:14 0.000121908
58 *110:43 *113:26 0.000289194
59 *110:43 *123:65 1.36734e-05
60 *110:43 *132:81 4.78362e-05
61 *110:43 *156:18 1.14338e-05
62 *110:43 *163:26 0.000244706
63 *110:58 *692:C 2.61337e-05
64 *110:58 *755:A 0.000119849
65 *110:58 *846:A 7.55769e-05
66 *110:58 *116:20 6.14876e-05
67 *110:58 *148:10 1.1594e-05
68 *110:58 *148:16 0.000336112
69 *110:58 *148:22 0
70 *110:58 *153:33 9.73566e-05
71 *110:58 *163:26 0.000362226
72 *110:98 *753:A 0
73 *110:98 *166:71 7.69776e-06
74 *110:126 *761:B1_N 0.000301016
75 *110:126 *113:26 0.000135968
76 *110:126 *135:66 0.000586918
77 *110:126 *145:18 0.000461718
78 *110:126 *145:40 0.000196682
79 *110:126 *166:55 2.12005e-05
80 *110:130 *768:A 0.000877584
81 *110:143 *747:A 3.90768e-05
82 *110:143 *758:B 8.30806e-05
83 *709:A1 *762:A2 4.58194e-05
84 *709:A1 *110:16 0.000322672
85 *724:B *768:D 2.02282e-05
86 *724:B *110:130 8.73206e-05
87 *739:A_N *771:A2_N 9.60939e-05
88 *750:A *110:43 1.89903e-05
89 *750:A *110:58 0.000343958
90 *819:RESET_B *755:B 0
91 *827:D *761:A2 9.58181e-05
92 *831:D *110:126 0.000298817
93 *19:12 *752:A_N 0
94 *19:12 *755:B 2.11419e-05
95 *29:14 *754:B 5.33005e-05
96 *32:10 *772:A2 0.000702573
97 *45:32 *760:A3 1.79373e-05
98 *55:14 *110:16 2.06112e-05
99 *55:14 *110:58 0
100 *78:8 *752:A_N 5.98389e-05
101 *81:26 *762:A2 6.6382e-05
102 *81:51 *772:A2 0.000528701
103 *83:16 *762:A2 0.000330044
104 *83:16 *110:43 5.74322e-05
105 *85:10 *762:A2 6.30931e-05
106 *89:18 *110:130 0.000680491
107 *92:38 *755:B 9.22204e-05
108 *97:14 *771:A2_N 0.000288213
109 *97:14 *110:126 0.000411144
110 *98:16 *110:16 5.49544e-05
111 *98:16 *110:126 0.00013833
112 *101:10 *110:16 4.16948e-05
113 *106:58 *760:A3 0
*RES
1 *750:X *110:4 9.3 
2 *110:4 *110:16 21.8296 
3 *110:16 *762:A2 20.6196 
4 *110:16 *110:43 7.80968 
5 *110:43 *754:B 14.7643 
6 *110:43 *110:58 22.8118 
7 *110:58 *110:60 0.335267 
8 *110:60 *755:B 18.0383 
9 *110:60 *752:A_N 39.0404 
10 *110:58 *110:98 10.1796 
11 *110:98 *767:D 9.3 
12 *110:98 *772:A2 38.9071 
13 *110:4 *110:126 33.0179 
14 *110:126 *110:130 16.0089 
15 *110:130 *768:D 14.3804 
16 *110:130 *110:143 3.8894 
17 *110:143 *760:A3 20.7921 
18 *110:143 *771:A2_N 22.0761 
19 *110:126 *761:A2 24.6214 
*END

*D_NET *111 0.00858153
*CONN
*I *752:B I *D sky130_fd_sc_hd__and2b_1
*I *751:X O *D sky130_fd_sc_hd__a21o_1
*CAP
1 *752:B 0
2 *751:X 0.000262347
3 *111:18 0.00152652
4 *111:12 0.00178887
5 *111:12 *699:C_N 0.000218679
6 *111:18 *696:A 0
7 *111:18 *770:B 0.000134283
8 *111:18 *123:16 4.00349e-05
9 *111:18 *135:30 3.8206e-05
10 *111:18 *165:48 3.50838e-05
11 *111:18 *165:77 0.000181796
12 *111:18 *167:16 0.000957986
13 *111:18 *170:16 0.000486802
14 *696:D *111:18 0.000179564
15 *700:B *111:18 0.00015158
16 *704:A3 *111:18 0.000474255
17 *735:B *111:12 0.0001922
18 *735:B *111:18 0.000317895
19 *752:A_N *111:18 2.2351e-05
20 *77:22 *111:18 0.000311969
21 *77:86 *111:18 0.000336683
22 *78:8 *111:18 0.000315116
23 *81:26 *111:18 0.00026407
24 *99:24 *111:12 0.000214074
25 *99:24 *111:18 0.000131166
*RES
1 *751:X *111:12 19.2196 
2 *111:12 *111:18 47.1696 
3 *111:18 *752:B 9.3 
*END

*D_NET *112 0.0211304
*CONN
*I *753:A I *D sky130_fd_sc_hd__buf_1
*I *752:X O *D sky130_fd_sc_hd__and2b_1
*CAP
1 *753:A 0.00580119
2 *752:X 0.00142207
3 *112:16 0.00722326
4 *753:A *748:B 0.000148198
5 *753:A *794:A 5.7416e-05
6 *753:A *851:A 0.000277696
7 *753:A *130:12 0.000101391
8 *753:A *140:10 0.000183617
9 *753:A *165:77 0.000241465
10 *112:16 *696:B 0.000444436
11 *716:A1_N *753:A 0
12 *718:A1 *753:A 0
13 *832:RESET_B *753:A 0.000253045
14 *38:18 *753:A 3.2921e-05
15 *61:18 *753:A 0.000377073
16 *68:10 *753:A 0.000150751
17 *93:26 *753:A 0.00417019
18 *95:75 *753:A 0.00013883
19 *103:30 *753:A 0
20 *108:14 *753:A 0.000106828
21 *110:98 *753:A 0
*RES
1 *752:X *112:16 46.7911 
2 *112:16 *753:A 43.9324 
*END

*D_NET *113 0.0107047
*CONN
*I *756:A_N I *D sky130_fd_sc_hd__and2b_1
*I *754:Y O *D sky130_fd_sc_hd__nor2_1
*CAP
1 *756:A_N 0
2 *754:Y 0.00234757
3 *113:26 0.00234757
4 *113:26 *711:A 0.0002716
5 *113:26 *711:B 0.000528148
6 *113:26 *771:A1_N 0.00257132
7 *113:26 *114:26 0.000388967
8 *113:26 *123:65 0.00013576
9 *113:26 *163:26 1.95625e-05
10 *750:A *113:26 0.000242828
11 *843:A *113:26 0.00127395
12 *83:16 *113:26 4.10533e-05
13 *95:37 *113:26 0
14 *101:10 *113:26 0.000111243
15 *110:43 *113:26 0.000289194
16 *110:126 *113:26 0.000135968
*RES
1 *754:Y *113:26 48.9289 
2 *113:26 *756:A_N 9.3 
*END

*D_NET *114 0.0159565
*CONN
*I *758:B I *D sky130_fd_sc_hd__xnor2_1
*I *756:B I *D sky130_fd_sc_hd__and2b_1
*I *755:Y O *D sky130_fd_sc_hd__nand2_1
*CAP
1 *758:B 0.000466967
2 *756:B 8.22468e-06
3 *755:Y 0.00359804
4 *114:26 0.00407324
5 *756:B *687:C 2.11419e-05
6 *756:B *760:A1 9.54798e-06
7 *756:B *774:A 3.43988e-06
8 *758:B *747:A 0
9 *114:26 *737:A 0
10 *114:26 *755:A 4.19624e-06
11 *114:26 *118:22 0.000722191
12 *114:26 *123:65 4.78824e-05
13 *114:26 *149:24 1.07374e-05
14 *755:B *114:26 2.23112e-05
15 *760:A3 *758:B 0.000108126
16 *760:A3 *114:26 1.64619e-05
17 *843:A *114:26 0.00201205
18 *45:32 *758:B 0.000826611
19 *45:32 *114:26 0.00187395
20 *81:51 *114:26 0.000183634
21 *92:38 *114:26 0.00146945
22 *104:22 *758:B 6.27272e-06
23 *110:143 *758:B 8.30806e-05
24 *113:26 *114:26 0.000388967
*RES
1 *755:Y *114:26 37.4988 
2 *114:26 *756:B 17.4868 
3 *114:26 *758:B 18.9031 
*END

*D_NET *115 0.00366887
*CONN
*I *757:A I *D sky130_fd_sc_hd__buf_1
*I *756:X O *D sky130_fd_sc_hd__and2b_1
*CAP
1 *757:A 0.00102987
2 *756:X 0.00102987
3 *757:A *722:B 0.000926413
4 *757:A *760:A1 0.000346261
5 *757:A *148:62 0.000145982
6 *724:B *757:A 2.16573e-05
7 *97:14 *757:A 0.000168823
*RES
1 *756:X *757:A 47.225 
*END

*D_NET *116 0.0158641
*CONN
*I *767:C I *D sky130_fd_sc_hd__and4_1
*I *761:A1 I *D sky130_fd_sc_hd__a21boi_1
*I *762:A1 I *D sky130_fd_sc_hd__a21oi_1
*I *759:X O *D sky130_fd_sc_hd__and3_1
*CAP
1 *767:C 0.000436792
2 *761:A1 0
3 *762:A1 0.00104163
4 *759:X 0
5 *116:59 0.00183131
6 *116:20 0.00392152
7 *116:4 0.00148538
8 *762:A1 *818:CLK 2.89219e-05
9 *767:C *749:A 4.01319e-05
10 *767:C *759:C 6.41415e-05
11 *767:C *767:B 0.000441448
12 *767:C *167:58 0
13 *116:20 *733:B 0.000756523
14 *116:20 *812:A 0.000260574
15 *116:20 *133:30 0.000528697
16 *116:20 *135:14 1.17968e-05
17 *116:20 *148:16 4.46186e-06
18 *116:20 *153:33 1.68854e-05
19 *116:20 *163:26 0.000377878
20 *116:59 *813:CLK 0.00012449
21 *116:59 *126:32 0.000143967
22 *116:59 *126:63 0.000305742
23 *116:59 *129:102 0.000192757
24 *116:59 *142:130 9.97164e-05
25 *116:59 *156:56 6.13757e-06
26 *116:59 *166:55 4.12164e-05
27 *709:A1 *762:A1 7.49305e-05
28 *818:RESET_B *762:A1 7.35988e-05
29 *818:RESET_B *116:20 0.000100142
30 *818:RESET_B *116:59 0.000183225
31 *824:RESET_B *116:20 0.00016198
32 *824:RESET_B *116:59 0.000159016
33 *833:RESET_B *116:59 0
34 *839:RESET_B *116:59 0.000179194
35 *24:16 *116:59 0.000113686
36 *32:10 *767:C 0.000484016
37 *40:14 *116:59 0.000450682
38 *43:38 *116:59 0
39 *52:12 *116:59 2.72935e-05
40 *53:12 *116:20 0.000630034
41 *69:12 *767:C 2.42525e-05
42 *69:12 *116:20 4.64978e-05
43 *70:16 *762:A1 6.05161e-06
44 *77:30 *116:20 0.00018077
45 *81:51 *767:C 1.98839e-05
46 *86:20 *116:20 0.000178847
47 *89:42 *116:59 0.00012556
48 *92:38 *116:59 0
49 *108:14 *767:C 0.00025452
50 *109:14 *116:20 0.000166352
51 *110:58 *116:20 6.14876e-05
*RES
1 *759:X *116:4 9.3 
2 *116:4 *116:20 44.7857 
3 *116:20 *762:A1 21.8 
4 *116:20 *116:59 43.75 
5 *116:59 *761:A1 9.3 
6 *116:4 *767:C 28.9786 
*END

*D_NET *117 0.00655454
*CONN
*I *761:B1_N I *D sky130_fd_sc_hd__a21boi_1
*I *760:X O *D sky130_fd_sc_hd__a31o_1
*CAP
1 *761:B1_N 0.000326743
2 *760:X 0.00159246
3 *117:16 0.0019192
4 *761:B1_N *810:A 0.000143375
5 *117:16 *737:A 2.28544e-05
6 *117:16 *760:A1 0.000139146
7 *117:16 *760:B1 0.000485078
8 *117:16 *143:26 0.000319291
9 *117:16 *143:90 0.000180496
10 *117:16 *166:22 0.000373435
11 *701:A *117:16 0.00010975
12 *731:A2 *117:16 6.35864e-05
13 *761:A2 *761:B1_N 0.000351105
14 *80:24 *117:16 0.00016021
15 *98:16 *117:16 6.67893e-05
16 *110:126 *761:B1_N 0.000301016
*RES
1 *760:X *117:16 44.8179 
2 *117:16 *761:B1_N 16.4071 
*END

*D_NET *118 0.0153206
*CONN
*I *764:A_N I *D sky130_fd_sc_hd__and2b_1
*I *762:Y O *D sky130_fd_sc_hd__a21oi_1
*CAP
1 *764:A_N 0.00113034
2 *762:Y 0.00300436
3 *118:22 0.0041347
4 *764:A_N *797:A 9.90431e-05
5 *764:A_N *807:A 0.000435839
6 *764:A_N *119:29 0.00212178
7 *764:A_N *120:12 0.000390724
8 *764:A_N *121:12 0.000579583
9 *764:A_N *128:54 4.98055e-06
10 *764:A_N *128:56 9.69119e-06
11 *764:A_N *130:18 0
12 *118:22 *738:A1 0
13 *118:22 *738:A3 0.000480516
14 *118:22 *123:16 0.000481321
15 *813:RESET_B *118:22 0
16 *843:A *118:22 7.23523e-05
17 *18:20 *118:22 0
18 *26:18 *118:22 2.22043e-05
19 *50:24 *118:22 2.75989e-05
20 *64:8 *764:A_N 4.3516e-05
21 *66:10 *764:A_N 0
22 *84:10 *118:22 2.06178e-05
23 *92:38 *118:22 0.000725743
24 *96:39 *118:22 0
25 *102:12 *764:A_N 0.000495423
26 *103:30 *764:A_N 0.00031812
27 *114:26 *118:22 0.000722191
*RES
1 *762:Y *118:22 34.3219 
2 *118:22 *764:A_N 49.3268 
*END

*D_NET *119 0.0148736
*CONN
*I *764:B I *D sky130_fd_sc_hd__and2b_1
*I *766:B I *D sky130_fd_sc_hd__xnor2_1
*I *763:Y O *D sky130_fd_sc_hd__nand2_1
*CAP
1 *764:B 0
2 *766:B 0.000115781
3 *763:Y 0.000258233
4 *119:29 0.00142367
5 *119:21 0.00276168
6 *119:10 0.00171203
7 *766:B *766:A 5.49995e-05
8 *766:B *135:60 0.00034619
9 *766:B *148:24 0.000137639
10 *766:B *148:56 0.00021846
11 *119:10 *135:60 3.14003e-05
12 *119:10 *139:10 9.6021e-05
13 *119:10 *139:12 8.80151e-05
14 *119:10 *139:76 3.92854e-05
15 *119:21 *148:56 0.000246089
16 *119:29 *797:A 3.18676e-05
17 *119:29 *807:A 0.00022766
18 *119:29 *121:12 4.43552e-05
19 *119:29 *128:12 0.000360403
20 *119:29 *128:54 2.39779e-05
21 *119:29 *128:105 0.00022256
22 *119:29 *141:79 0
23 *716:A1_N *119:29 0.000144507
24 *750:A *119:10 0.00048326
25 *764:A_N *119:29 0.00212178
26 *793:A *119:29 0.000979099
27 *821:RESET_B *119:29 0
28 *826:RESET_B *119:29 0.0010958
29 *837:RESET_B *119:29 0.000265385
30 *840:RESET_B *119:21 0.000131799
31 *5:13 *119:29 0.000190195
32 *55:14 *119:21 0.000558982
33 *64:8 *119:29 0.000141131
34 *103:30 *119:29 0.000321332
*RES
1 *763:Y *119:10 24.8 
2 *119:10 *766:B 13.1214 
3 *119:10 *119:21 26.8036 
4 *119:21 *119:29 49.7857 
5 *119:29 *764:B 9.3 
*END

*D_NET *120 0.00899344
*CONN
*I *765:A I *D sky130_fd_sc_hd__buf_1
*I *764:X O *D sky130_fd_sc_hd__and2b_1
*CAP
1 *765:A 0.00211052
2 *764:X 0.000471763
3 *120:12 0.00258228
4 *765:A *794:A 0.000967461
5 *765:A *809:A 0.000267025
6 *765:A *823:CLK 5.66943e-05
7 *120:12 *809:A 0.00017456
8 *120:12 *128:56 6.42338e-05
9 *764:A_N *120:12 0.000390724
10 *821:RESET_B *120:12 0.000361371
11 *823:D *765:A 7.92229e-06
12 *823:RESET_B *765:A 0.00151169
13 *18:10 *765:A 2.71964e-05
*RES
1 *764:X *120:12 28.0143 
2 *120:12 *765:A 49.1393 
*END

*D_NET *121 0.0102048
*CONN
*I *769:A2 I *D sky130_fd_sc_hd__o21ba_1
*I *767:X O *D sky130_fd_sc_hd__and4_1
*CAP
1 *769:A2 0.00019944
2 *767:X 0.000377956
3 *121:12 0.00158186
4 *121:8 0.00176038
5 *769:A2 *769:A1 5.18823e-05
6 *769:A2 *769:B1_N 0.000558244
7 *769:A2 *145:55 0.000599063
8 *121:8 *852:A 0.000349777
9 *121:12 *702:C 0.000229455
10 *121:12 *128:12 0.000362057
11 *121:12 *128:105 0.00127154
12 *121:12 *130:141 0
13 *121:12 *134:25 0.00050008
14 *121:12 *141:92 0
15 *121:12 *161:21 0
16 *121:12 *161:46 0
17 *121:12 *168:52 4.98968e-05
18 *764:A_N *121:12 0.000579583
19 *772:A2 *121:8 0.000141684
20 *828:D *121:12 0.000102275
21 *837:RESET_B *121:12 0.000265385
22 *18:20 *121:12 0.000112416
23 *22:10 *121:12 0.000458946
24 *22:20 *121:12 0.000287453
25 *81:51 *121:8 0.000262699
26 *102:12 *121:12 5.83677e-05
27 *119:29 *121:12 4.43552e-05
*RES
1 *767:X *121:8 22.55 
2 *121:8 *121:12 45.3036 
3 *121:12 *769:A2 16.425 
*END

*D_NET *122 0.00883982
*CONN
*I *769:B1_N I *D sky130_fd_sc_hd__o21ba_1
*I *771:B1 I *D sky130_fd_sc_hd__o2bb2a_1
*I *768:X O *D sky130_fd_sc_hd__and4_1
*CAP
1 *769:B1_N 0.000488277
2 *771:B1 3.59657e-05
3 *768:X 0.000119928
4 *122:29 0.00136877
5 *122:10 0.00103639
6 *769:B1_N *769:A1 0.000803619
7 *769:B1_N *145:55 0.000517004
8 *122:10 *768:A 0.000332224
9 *122:10 *787:A 0.000171884
10 *122:29 *778:A 4.65158e-06
11 *122:29 *126:63 8.40006e-06
12 *122:29 *151:10 0.000276576
13 *122:29 *151:14 0.00141978
14 *739:A_N *771:B1 1.58163e-05
15 *739:A_N *122:29 0.000231924
16 *769:A2 *769:B1_N 0.000558244
17 *822:RESET_B *122:29 0.00125549
18 *832:RESET_B *122:29 6.05966e-05
19 *45:32 *122:10 0.000134273
*RES
1 *768:X *122:10 22.675 
2 *122:10 *771:B1 9.83571 
3 *122:10 *122:29 36.4286 
4 *122:29 *769:B1_N 24.6214 
*END

*D_NET *123 0.0220505
*CONN
*I *772:A1 I *D sky130_fd_sc_hd__a21oi_1
*I *771:A1_N I *D sky130_fd_sc_hd__o2bb2a_1
*I *770:X O *D sky130_fd_sc_hd__and4_1
*CAP
1 *772:A1 8.67593e-05
2 *771:A1_N 0.00174788
3 *770:X 0.000713446
4 *123:65 0.00281468
5 *123:16 0.00518924
6 *771:A1_N *734:A 0.000390285
7 *771:A1_N *771:B2 3.31271e-05
8 *771:A1_N *135:66 9.10431e-06
9 *771:A1_N *148:62 0.000116155
10 *771:A1_N *154:46 0.000124005
11 *771:A1_N *156:18 0.00114701
12 *772:A1 *773:B 5.92267e-05
13 *772:A1 *141:92 0
14 *772:A1 *169:71 0
15 *123:16 *738:A3 0.000237279
16 *123:16 *770:C 3.84173e-05
17 *123:16 *167:16 4.04359e-05
18 *123:65 *690:A 0
19 *123:65 *738:A3 0
20 *123:65 *132:81 0.000174419
21 *123:65 *133:10 4.00349e-05
22 *123:65 *133:30 6.82998e-05
23 *123:65 *156:18 0.000116101
24 *123:65 *168:60 0.000294154
25 *701:A *123:16 4.79414e-05
26 *714:B1_N *123:65 3.97677e-05
27 *716:A1_N *123:65 0.000358654
28 *718:A1 *123:65 0.00073337
29 *739:A_N *771:A1_N 6.99199e-05
30 *772:A2 *772:A1 1.02504e-05
31 *830:D *123:65 0.00147418
32 *831:D *771:A1_N 8.45461e-05
33 *843:A *771:A1_N 1.78765e-05
34 *45:32 *771:A1_N 0
35 *56:18 *772:A1 0.000115369
36 *70:16 *123:16 0.000177815
37 *82:141 *123:65 8.23597e-06
38 *83:16 *123:16 0.00117491
39 *83:16 *123:65 0
40 *89:42 *123:65 0.000225982
41 *90:12 *123:65 0.00014564
42 *91:40 *123:65 0
43 *94:16 *771:A1_N 0.000121573
44 *95:75 *123:65 2.06791e-05
45 *97:14 *771:A1_N 0.000452144
46 *99:14 *123:65 4.15592e-05
47 *110:43 *123:65 1.36734e-05
48 *111:18 *123:16 4.00349e-05
49 *113:26 *771:A1_N 0.00257132
50 *113:26 *123:65 0.00013576
51 *114:26 *123:65 4.78824e-05
52 *118:22 *123:16 0.000481321
*RES
1 *770:X *123:16 24.925 
2 *123:16 *771:A1_N 31.3025 
3 *123:16 *123:65 47.9615 
4 *123:65 *772:A1 19.6118 
*END

*D_NET *124 0.0022847
*CONN
*I *773:B I *D sky130_fd_sc_hd__nor2_1
*I *772:Y O *D sky130_fd_sc_hd__a21oi_1
*CAP
1 *773:B 0.000429499
2 *772:Y 0.000429499
3 *773:B *690:B 0.000218723
4 *773:B *706:A 5.33005e-05
5 *773:B *141:92 0
6 *773:B *144:16 0.000331064
7 *707:B *773:B 0.000123295
8 *717:B *773:B 5.52302e-05
9 *772:A1 *773:B 5.92267e-05
10 *56:18 *773:B 9.66458e-05
11 *73:16 *773:B 2.6276e-05
12 *77:58 *773:B 0.000461937
*RES
1 *772:Y *773:B 39.4571 
*END

*D_NET *125 0.00269733
*CONN
*I *777:A I *D sky130_fd_sc_hd__nor2_1
*I *775:Y O *D sky130_fd_sc_hd__a21oi_1
*CAP
1 *777:A 0.00103494
2 *775:Y 0.00103494
3 *777:A *738:B1 0.000125484
4 *777:A *813:CLK 1.83136e-05
5 *777:A *126:32 1.21429e-05
6 *777:A *126:63 1.00733e-05
7 *777:A *141:14 5.49544e-05
8 *777:A *152:67 4.65258e-05
9 *777:A *159:23 0.000266092
10 *775:A2 *777:A 3.14078e-05
11 *813:D *777:A 6.2453e-05
*RES
1 *775:Y *777:A 42.5643 
*END

*D_NET *126 0.012031
*CONN
*I *778:B I *D sky130_fd_sc_hd__xor2_1
*I *777:B I *D sky130_fd_sc_hd__nor2_1
*I *776:X O *D sky130_fd_sc_hd__and3_1
*CAP
1 *778:B 4.87814e-05
2 *777:B 0
3 *776:X 0.00110364
4 *126:63 0.00164115
5 *126:32 0.00231255
6 *126:16 0.00182382
7 *778:B *169:16 0.000273986
8 *778:B *175:12 9.94988e-05
9 *126:16 *693:A 0
10 *126:16 *714:A1 5.41164e-05
11 *126:16 *814:CLK 9.41642e-05
12 *126:16 *156:56 0
13 *126:32 *136:14 0
14 *126:32 *136:32 0
15 *126:32 *144:66 0.000180079
16 *126:63 *813:CLK 0.000554398
17 *126:63 *136:14 0
18 *126:63 *146:53 0
19 *126:63 *151:14 0.000126149
20 *777:A *126:32 1.21429e-05
21 *777:A *126:63 1.00733e-05
22 *813:D *126:32 7.34667e-06
23 *813:D *126:63 1.58163e-05
24 *814:D *126:16 9.58126e-05
25 *818:RESET_B *126:32 0
26 *824:RESET_B *126:16 0
27 *827:D *126:63 3.39905e-05
28 *827:RESET_B *126:63 0.000563494
29 *832:RESET_B *126:63 3.27658e-05
30 *24:16 *126:16 0.00116296
31 *24:16 *126:32 0.000720901
32 *40:14 *126:63 0.000167279
33 *43:38 *126:32 5.83304e-05
34 *86:20 *126:16 0.000274079
35 *89:42 *126:16 9.80363e-06
36 *92:38 *126:63 9.58126e-05
37 *105:14 *126:63 0
38 *116:59 *126:32 0.000143967
39 *116:59 *126:63 0.000305742
40 *122:29 *126:63 8.40006e-06
*RES
1 *776:X *126:16 43.5857 
2 *126:16 *126:32 28.4286 
3 *126:32 *777:B 9.3 
4 *126:32 *126:63 47.8214 
5 *126:63 *778:B 11.8893 
*END

*D_NET *127 0.0100952
*CONN
*I *780:B1 I *D sky130_fd_sc_hd__o2bb2a_1
*I *779:X O *D sky130_fd_sc_hd__and4_1
*CAP
1 *780:B1 0.000550295
2 *779:X 0.000887917
3 *127:12 0.00143821
4 *780:B1 *692:D 1.83266e-05
5 *780:B1 *780:A1_N 9.41642e-05
6 *780:B1 *818:CLK 4.4482e-05
7 *780:B1 *129:68 0.000429571
8 *780:B1 *142:10 0.000280802
9 *780:B1 *144:87 3.97677e-05
10 *780:B1 *149:24 0.000109425
11 *780:B1 *155:14 0.000314721
12 *127:12 *692:D 0.00131735
13 *127:12 *704:A1 6.91755e-05
14 *127:12 *704:A2 0.000550312
15 *127:12 *779:A 0.000347559
16 *127:12 *779:C 3.18747e-05
17 *127:12 *829:CLK 2.30219e-05
18 *127:12 *139:98 0.000855916
19 *127:12 *155:14 6.79672e-06
20 *127:12 *161:67 4.22378e-05
21 *779:D *127:12 0.000438732
22 *780:A2_N *780:B1 0.000188238
23 *814:RESET_B *780:B1 9.16325e-06
24 *819:D *127:12 0.00116638
25 *18:20 *780:B1 0.000621155
26 *27:14 *780:B1 0.00021961
27 *27:14 *127:12 0
*RES
1 *779:X *127:12 45.9696 
2 *127:12 *780:B1 30.8446 
*END

*D_NET *128 0.02749
*CONN
*I *804:A I *D sky130_fd_sc_hd__inv_2
*I *805:A I *D sky130_fd_sc_hd__inv_2
*I *812:A I *D sky130_fd_sc_hd__inv_2
*I *808:A I *D sky130_fd_sc_hd__inv_2
*I *782:A I *D sky130_fd_sc_hd__buf_4
*I *807:A I *D sky130_fd_sc_hd__inv_2
*I *806:A I *D sky130_fd_sc_hd__inv_2
*I *809:A I *D sky130_fd_sc_hd__inv_2
*I *811:A I *D sky130_fd_sc_hd__inv_2
*I *810:A I *D sky130_fd_sc_hd__inv_2
*I *781:X O *D sky130_fd_sc_hd__buf_4
*CAP
1 *804:A 2.37855e-05
2 *805:A 0
3 *812:A 0.00102045
4 *808:A 1.91553e-05
5 *782:A 0
6 *807:A 0.000112475
7 *806:A 0.000303243
8 *809:A 0.00040096
9 *811:A 0
10 *810:A 0.000639874
11 *781:X 0.000308639
12 *128:115 0.00163378
13 *128:105 0.00128317
14 *128:56 0.000814387
15 *128:54 0.000521195
16 *128:43 0.000378825
17 *128:22 0.00079549
18 *128:18 0.000610714
19 *128:12 0.000666743
20 *128:8 0.0010669
21 *806:A *169:16 8.95645e-05
22 *806:A *175:12 0.000364295
23 *810:A *716:B2 0.000101184
24 *810:A *138:8 0.000112875
25 *810:A *138:10 8.32242e-05
26 *810:A *152:35 0.000150262
27 *810:A *152:50 5.31122e-05
28 *810:A *159:10 0.000247151
29 *812:A *692:C 0.000262679
30 *812:A *692:D 0.000306048
31 *812:A *693:A 0.000187839
32 *812:A *749:A 0
33 *812:A *133:30 5.31101e-05
34 *812:A *148:16 0.00035224
35 *812:A *167:58 0.000170754
36 *128:43 *716:B2 1.21258e-05
37 *128:54 *716:B2 1.58163e-05
38 *128:105 *816:CLK 7.02611e-05
39 *128:105 *168:26 2.22618e-05
40 *128:105 *168:52 0.000708432
41 *128:105 *168:60 0.000146841
42 *128:115 *767:A 0
43 *128:115 *816:CLK 0.000103977
44 *128:115 *834:CLK 0.000418923
45 *128:115 *840:CLK 3.47641e-06
46 *128:115 *153:33 0.000642197
47 *128:115 *168:26 1.13883e-05
48 *716:A2_N *128:18 0.000884618
49 *716:A2_N *128:22 0.000218026
50 *716:B1 *810:A 0.000600379
51 *716:B1 *128:43 0.000292554
52 *716:B1 *128:54 4.08637e-05
53 *761:A2 *810:A 8.72372e-05
54 *761:B1_N *810:A 0.000143375
55 *764:A_N *807:A 0.000435839
56 *764:A_N *128:54 4.98055e-06
57 *764:A_N *128:56 9.69119e-06
58 *765:A *809:A 0.000267025
59 *781:A *128:8 0.000345251
60 *816:D *128:105 2.59355e-05
61 *821:RESET_B *128:54 0.000199757
62 *821:RESET_B *128:56 1.46624e-05
63 *826:RESET_B *128:54 0.000691369
64 *827:D *810:A 2.12005e-05
65 *834:D *128:115 6.05161e-06
66 *839:D *128:54 0.000196262
67 *839:RESET_B *810:A 0.000372066
68 *840:D *812:A 0.000266859
69 *840:D *128:115 9.58126e-05
70 *5:13 *128:105 0.000103014
71 *22:20 *128:18 0.00150853
72 *22:20 *128:22 0.000218026
73 *24:16 *128:115 0.000141969
74 *49:8 *808:A 2.14658e-05
75 *49:8 *128:18 0.000116019
76 *52:12 *808:A 2.59355e-05
77 *52:12 *128:18 0.000113043
78 *61:8 *128:115 9.41642e-05
79 *68:10 *810:A 9.60875e-05
80 *68:10 *128:43 0.000263102
81 *69:12 *812:A 0.000501915
82 *82:126 *128:18 0.000247418
83 *82:141 *128:18 0.000380961
84 *103:30 *128:18 0.000181142
85 *116:20 *812:A 0.000260574
86 *119:29 *807:A 0.00022766
87 *119:29 *128:12 0.000360403
88 *119:29 *128:54 2.39779e-05
89 *119:29 *128:105 0.00022256
90 *120:12 *809:A 0.00017456
91 *120:12 *128:56 6.42338e-05
92 *121:12 *128:12 0.000362057
93 *121:12 *128:105 0.00127154
*RES
1 *781:X *128:8 18.8536 
2 *128:8 *128:12 9.17857 
3 *128:12 *128:18 26.2321 
4 *128:18 *128:22 7.35714 
5 *128:22 *810:A 35.6214 
6 *128:22 *128:43 3 
7 *128:43 *811:A 9.3 
8 *128:43 *128:54 14.875 
9 *128:54 *128:56 2.25 
10 *128:56 *809:A 23.425 
11 *128:56 *806:A 20.4964 
12 *128:54 *807:A 18.0321 
13 *128:18 *782:A 13.8 
14 *128:12 *808:A 9.83571 
15 *128:8 *128:105 24.3214 
16 *128:105 *128:115 23.1071 
17 *128:115 *812:A 41.5143 
18 *128:115 *805:A 9.3 
19 *128:105 *804:A 9.72857 
*END

*D_NET *129 0.0288855
*CONN
*I *788:A I *D sky130_fd_sc_hd__inv_2
*I *786:A I *D sky130_fd_sc_hd__inv_2
*I *785:A I *D sky130_fd_sc_hd__inv_2
*I *792:A I *D sky130_fd_sc_hd__inv_2
*I *783:A I *D sky130_fd_sc_hd__inv_2
*I *791:A I *D sky130_fd_sc_hd__inv_2
*I *790:A I *D sky130_fd_sc_hd__inv_2
*I *784:A I *D sky130_fd_sc_hd__inv_2
*I *789:A I *D sky130_fd_sc_hd__inv_2
*I *787:A I *D sky130_fd_sc_hd__inv_2
*I *782:X O *D sky130_fd_sc_hd__buf_4
*CAP
1 *788:A 0
2 *786:A 1.49752e-05
3 *785:A 0.000510164
4 *792:A 0
5 *783:A 0
6 *791:A 0
7 *790:A 0.000170246
8 *784:A 0.000344617
9 *789:A 0.000720485
10 *787:A 0.00098741
11 *782:X 0.00089857
12 *129:129 0.000958609
13 *129:116 0.000546824
14 *129:109 0.000227311
15 *129:102 0.000560443
16 *129:70 0.000618095
17 *129:68 0.00118992
18 *129:49 0.00208737
19 *129:18 0.00184573
20 *129:14 0.0010302
21 *784:A *727:A2 4.73286e-05
22 *784:A *145:16 8.96922e-05
23 *785:A *691:D 9.60875e-05
24 *785:A *776:B 4.45524e-05
25 *785:A *840:CLK 0.000156591
26 *785:A *133:30 5.33065e-05
27 *785:A *151:18 2.30116e-06
28 *785:A *166:71 0.000455357
29 *785:A *172:26 9.41642e-05
30 *786:A *691:D 4.08637e-05
31 *786:A *172:26 5.33005e-05
32 *787:A *758:A 9.83442e-05
33 *787:A *760:A1 8.97632e-06
34 *787:A *768:A 0.000531452
35 *787:A *169:16 0.00022093
36 *787:A *175:12 0.000346932
37 *789:A *742:A 4.99858e-05
38 *790:A *173:27 5.33005e-05
39 *129:14 *697:A 0.000813743
40 *129:14 *844:A 0.000394502
41 *129:14 *136:14 0.000185118
42 *129:18 *768:A 3.56212e-05
43 *129:49 *132:6 0.000756149
44 *129:49 *132:12 9.41642e-05
45 *129:68 *711:A 0.000143887
46 *129:68 *132:12 9.30342e-05
47 *129:68 *132:31 0.000408247
48 *129:68 *132:56 6.91157e-05
49 *129:68 *155:14 0.000167329
50 *129:70 *145:16 7.46017e-05
51 *129:102 *714:A1 5.33005e-05
52 *129:102 *854:A 0.000136951
53 *129:102 *142:130 0.000338675
54 *129:102 *145:16 0.000161462
55 *129:102 *163:20 0.000303368
56 *129:109 *714:A1 0.000182605
57 *129:129 *152:67 0.000368578
58 *728:A *789:A 7.31147e-05
59 *728:A *129:49 2.42662e-05
60 *742:B *789:A 8.80625e-05
61 *780:B1 *129:68 0.000429571
62 *814:RESET_B *784:A 0.00122868
63 *814:RESET_B *129:70 0.000257619
64 *814:RESET_B *129:102 5.49544e-05
65 *818:RESET_B *129:102 0.000194343
66 *820:RESET_B *790:A 6.05161e-06
67 *823:D *787:A 0.000102168
68 *823:RESET_B *787:A 0.000185197
69 *829:RESET_B *785:A 0.000561016
70 *829:RESET_B *129:129 0.000904621
71 *833:RESET_B *787:A 0.000433122
72 *840:D *785:A 9.80904e-05
73 *841:RESET_B *785:A 1.92789e-05
74 *18:20 *129:68 0.000972521
75 *26:18 *790:A 0.000350514
76 *47:12 *789:A 1.07719e-05
77 *49:8 *129:109 0.000181418
78 *49:8 *129:116 0.000199146
79 *49:8 *129:129 8.35928e-05
80 *52:12 *129:109 0.000106992
81 *52:12 *129:116 0.000206349
82 *52:12 *129:129 8.85532e-05
83 *78:22 *129:14 4.54936e-05
84 *78:22 *129:18 3.34366e-05
85 *84:10 *790:A 0.000348085
86 *89:42 *129:102 1.58163e-05
87 *89:42 *129:109 9.37606e-06
88 *90:12 *129:129 0.000167361
89 *96:39 *784:A 0.000852435
90 *104:22 *787:A 0
91 *105:14 *787:A 0.000245311
92 *105:14 *789:A 8.68061e-06
93 *116:59 *129:102 0.000192757
94 *122:10 *787:A 0.000171884
*RES
1 *782:X *129:14 29.0679 
2 *129:14 *129:18 2.48214 
3 *129:18 *787:A 47.1571 
4 *129:18 *129:49 13.6607 
5 *129:49 *789:A 17.8536 
6 *129:49 *129:68 28.6071 
7 *129:68 *129:70 2.58929 
8 *129:70 *784:A 21.7643 
9 *129:70 *790:A 23.5143 
10 *129:68 *129:102 20.8393 
11 *129:102 *791:A 9.3 
12 *129:102 *129:109 3.82143 
13 *129:109 *783:A 9.3 
14 *129:109 *129:116 3.82143 
15 *129:116 *792:A 9.3 
16 *129:116 *129:129 22.7321 
17 *129:129 *785:A 32.1393 
18 *129:129 *786:A 9.83571 
19 *129:14 *788:A 13.8 
*END

*D_NET *130 0.0387228
*CONN
*I *795:A I *D sky130_fd_sc_hd__inv_2
*I *799:A I *D sky130_fd_sc_hd__inv_2
*I *803:A I *D sky130_fd_sc_hd__inv_2
*I *798:A I *D sky130_fd_sc_hd__inv_2
*I *796:A I *D sky130_fd_sc_hd__inv_2
*I *800:A I *D sky130_fd_sc_hd__inv_2
*I *801:A I *D sky130_fd_sc_hd__inv_2
*I *802:A I *D sky130_fd_sc_hd__inv_2
*I *797:A I *D sky130_fd_sc_hd__inv_2
*I *794:A I *D sky130_fd_sc_hd__inv_2
*I *793:X O *D sky130_fd_sc_hd__buf_4
*CAP
1 *795:A 0
2 *799:A 0.000531113
3 *803:A 0
4 *798:A 0.00014784
5 *796:A 0.000654153
6 *800:A 0.000166184
7 *801:A 0
8 *802:A 0
9 *797:A 0.000179909
10 *794:A 0.000487962
11 *793:X 0
12 *130:141 0.00117876
13 *130:107 0.00281859
14 *130:101 0.00345817
15 *130:91 0.000858442
16 *130:78 0.000531828
17 *130:65 0.00234581
18 *130:18 0.00102053
19 *130:14 0.00055039
20 *130:12 0.00308792
21 *130:4 0.000845505
22 *794:A *747:A 0.000576618
23 *796:A *715:C 0.000350932
24 *796:A *167:16 0.000335215
25 *796:A *168:82 1.59373e-05
26 *798:A *704:A2 0.000252294
27 *799:A *748:A 0.000185403
28 *799:A *748:C 0.000702727
29 *799:A *759:A 0.000183027
30 *799:A *772:B1 0
31 *799:A *141:92 0
32 *799:A *141:100 0.000487985
33 *800:A *854:A 0.000155275
34 *130:12 *144:66 7.67023e-05
35 *130:65 *710:A1 0.000544559
36 *130:65 *142:45 0.000123724
37 *130:65 *145:40 4.58194e-05
38 *130:65 *158:14 0.000883546
39 *130:78 *144:66 0.000145876
40 *130:78 *169:54 0.000419613
41 *130:91 *169:54 0.00021262
42 *130:101 *134:25 0.000216755
43 *130:101 *142:168 0.00117646
44 *130:107 *704:A2 7.6644e-05
45 *130:107 *846:A 0.000896709
46 *130:107 *135:14 3.30237e-05
47 *130:107 *135:22 1.56e-05
48 *130:107 *136:32 1.98839e-05
49 *130:107 *139:76 0.000160337
50 *702:A_N *130:141 9.98172e-05
51 *716:A2_N *130:14 3.57844e-05
52 *718:A2 *130:141 0.00032559
53 *719:A *130:18 0
54 *739:A_N *794:A 4.87953e-05
55 *739:A_N *797:A 2.44318e-05
56 *745:B *130:65 5.50052e-05
57 *753:A *794:A 5.7416e-05
58 *753:A *130:12 0.000101391
59 *764:A_N *797:A 9.90431e-05
60 *764:A_N *130:18 0
61 *765:A *794:A 0.000967461
62 *772:A2 *799:A 0.000195334
63 *793:A *130:78 5.68713e-05
64 *793:A *130:101 0.000384139
65 *823:D *794:A 9.59846e-05
66 *832:RESET_B *130:141 0.00020469
67 *835:D *794:A 0
68 *840:D *798:A 0.000137983
69 *5:13 *130:101 0.000800851
70 *19:12 *798:A 0.000261544
71 *19:12 *130:107 7.6644e-05
72 *22:20 *794:A 4.58194e-05
73 *22:20 *797:A 0.000102207
74 *22:20 *130:14 0
75 *22:20 *130:18 0
76 *32:10 *130:141 2.04965e-05
77 *40:14 *130:65 0.001099
78 *49:8 *130:101 6.81704e-05
79 *52:12 *130:101 9.0145e-05
80 *53:12 *796:A 0.000156822
81 *55:14 *798:A 3.14048e-05
82 *56:18 *799:A 2.32622e-05
83 *66:10 *794:A 0.000520433
84 *66:10 *130:18 0.000270965
85 *68:10 *130:12 0.000752224
86 *68:10 *130:14 0.000311669
87 *71:18 *130:101 9.01775e-06
88 *71:18 *130:107 9.33978e-07
89 *73:16 *130:78 0.000417898
90 *73:16 *130:91 0.000221163
91 *77:30 *796:A 0.000598871
92 *81:26 *796:A 0.000333493
93 *82:113 *130:12 9.41642e-05
94 *82:141 *130:141 0.000120724
95 *82:154 *130:141 3.37068e-05
96 *83:16 *130:141 0.000627129
97 *91:40 *130:107 6.58587e-05
98 *95:25 *130:14 0.000149763
99 *95:25 *130:18 0.000185199
100 *95:75 *130:12 0.000742528
101 *95:75 *130:14 0.000344255
102 *106:50 *130:65 1.345e-05
103 *108:14 *799:A 1.52217e-05
104 *109:14 *130:107 3.97677e-05
105 *119:29 *797:A 3.18676e-05
106 *121:12 *130:141 0
*RES
1 *793:X *130:4 9.3 
2 *130:4 *130:12 18.1786 
3 *130:12 *130:14 6.5 
4 *130:14 *130:18 12.2143 
5 *130:18 *794:A 35.6393 
6 *130:18 *797:A 13.5321 
7 *130:14 *802:A 13.8 
8 *130:12 *130:65 45.5536 
9 *130:65 *801:A 13.8 
10 *130:4 *130:78 13.1964 
11 *130:78 *800:A 16.8 
12 *130:78 *130:91 7.35714 
13 *130:91 *130:101 29.8929 
14 *130:101 *130:107 29.0714 
15 *130:107 *796:A 36.4607 
16 *130:107 *798:A 18.6214 
17 *130:101 *130:141 25.2143 
18 *130:141 *803:A 9.3 
19 *130:141 *799:A 33.9964 
20 *130:91 *795:A 9.3 
*END

*D_NET *131 0.0191538
*CONN
*I *705:A1 I *D sky130_fd_sc_hd__o31ai_1
*I *696:B I *D sky130_fd_sc_hd__and4_1
*I *687:X O *D sky130_fd_sc_hd__and3_1
*CAP
1 *705:A1 5.17526e-05
2 *696:B 0.000927178
3 *687:X 0.0015467
4 *131:26 0.00195014
5 *131:24 0.00111586
6 *131:20 0.000451972
7 *131:16 0.00185402
8 *131:16 *687:C 5.66971e-05
9 *131:16 *711:A 5.50052e-05
10 *131:16 *760:A1 2.60673e-05
11 *131:20 *142:58 0.000650442
12 *131:20 *168:84 0
13 *705:A3 *705:A1 8.17274e-05
14 *705:A3 *131:24 0.000227532
15 *711:C *131:16 6.7054e-05
16 *712:B *131:16 0.000264079
17 *739:A_N *131:16 0.000472299
18 *833:D *131:16 0.000370041
19 *18:10 *131:16 0.000371629
20 *29:24 *131:20 0
21 *29:24 *131:26 0.0029187
22 *33:16 *131:16 5.56577e-05
23 *33:18 *131:20 0
24 *33:18 *131:26 0.00420734
25 *47:12 *131:24 0
26 *47:16 *131:26 0.000576169
27 *78:10 *131:26 0.000302981
28 *94:16 *131:16 0.000108286
29 *112:16 *696:B 0.000444436
*RES
1 *687:X *131:16 45.6929 
2 *131:16 *131:20 12.8214 
3 *131:20 *131:24 6.67857 
4 *131:24 *131:26 59.9286 
5 *131:26 *696:B 35.05 
6 *131:20 *705:A1 10.2464 
*END

*D_NET *132 0.0293262
*CONN
*I *711:B I *D sky130_fd_sc_hd__and3_1
*I *713:A I *D sky130_fd_sc_hd__and3_1
*I *690:C I *D sky130_fd_sc_hd__and4_2
*I *715:B I *D sky130_fd_sc_hd__and3_1
*I *780:A1_N I *D sky130_fd_sc_hd__o2bb2a_1
*I *710:A1 I *D sky130_fd_sc_hd__a21oi_1
*I *688:X O *D sky130_fd_sc_hd__and4_2
*CAP
1 *711:B 0.000655863
2 *713:A 0.00031964
3 *690:C 0.00116889
4 *715:B 0.0011249
5 *780:A1_N 4.43863e-05
6 *710:A1 0.000718422
7 *688:X 0.00047735
8 *132:81 0.00349187
9 *132:56 0.00388829
10 *132:31 0.00110024
11 *132:12 0.00119327
12 *132:6 0.00131226
13 *690:C *690:B 0.000157561
14 *690:C *690:D 5.60311e-05
15 *690:C *707:A 1.68707e-05
16 *690:C *134:6 4.23644e-06
17 *690:C *160:8 5.33005e-05
18 *690:C *161:8 0.000175892
19 *710:A1 *710:B1 1.83136e-05
20 *710:A1 *142:45 1.5739e-05
21 *710:A1 *145:40 0.000170385
22 *711:B *687:C 0.000812045
23 *711:B *688:D 7.35637e-05
24 *711:B *711:A 0.000132483
25 *711:B *760:A1 0.000131929
26 *713:A *713:B 9.91086e-05
27 *713:A *718:B1 0.0001456
28 *713:A *825:CLK 1.21955e-05
29 *713:A *152:67 1.1594e-05
30 *715:B *715:C 7.38127e-05
31 *715:B *762:B1 0.000411192
32 *715:B *770:B 0.000159717
33 *715:B *842:A 2.28776e-05
34 *780:A1_N *144:87 0.00013636
35 *132:6 *688:D 0.00012899
36 *132:6 *154:46 0.000729222
37 *132:12 *688:D 0.000349797
38 *132:12 *711:A 0.000166346
39 *132:31 *688:D 0.000717495
40 *132:56 *688:D 9.25014e-06
41 *132:56 *699:C_N 0.000136682
42 *132:56 *762:B1 5.09065e-05
43 *132:56 *770:B 4.00349e-05
44 *132:56 *148:22 2.95495e-05
45 *132:56 *155:14 0.000252551
46 *132:56 *158:20 0.000540134
47 *132:81 *690:B 5.24274e-05
48 *132:81 *715:C 0.000174997
49 *132:81 *718:B1 1.17968e-05
50 *132:81 *762:B1 1.99092e-05
51 *132:81 *146:53 0.000345429
52 *132:81 *152:67 0.000733765
53 *132:81 *153:50 0.000546228
54 *707:B *690:C 0.00010258
55 *709:A1 *132:56 0.000810995
56 *709:B1 *715:B 0
57 *710:A2 *710:A1 6.05161e-06
58 *728:A *132:6 3.97677e-05
59 *728:A *132:12 4.87854e-05
60 *728:A *132:56 9.25014e-06
61 *735:B *710:A1 6.3629e-05
62 *745:B *710:A1 5.50052e-05
63 *762:A2 *132:81 1.73201e-05
64 *780:A2_N *780:A1_N 2.14757e-05
65 *780:B1 *780:A1_N 9.41642e-05
66 *815:RESET_B *711:B 0.000185446
67 *817:D *715:B 5.7903e-06
68 *824:D *132:81 0.000133361
69 *829:RESET_B *713:A 0
70 *830:RESET_B *715:B 0.000266938
71 *836:RESET_B *132:81 0
72 *840:RESET_B *690:C 4.2049e-05
73 *840:RESET_B *132:81 2.1892e-05
74 *841:D *690:C 2.89114e-05
75 *841:RESET_B *690:C 8.05563e-05
76 *19:12 *132:56 6.13772e-05
77 *56:18 *690:C 7.6644e-05
78 *58:10 *710:A1 6.19211e-06
79 *71:18 *690:C 9.41642e-05
80 *82:20 *711:B 0.000100248
81 *83:16 *715:B 0
82 *83:16 *132:81 0
83 *90:12 *713:A 0.000161608
84 *106:50 *710:A1 0.000150103
85 *107:18 *710:A1 0.000476451
86 *110:16 *132:56 2.80675e-05
87 *110:43 *132:81 4.78362e-05
88 *113:26 *711:B 0.000528148
89 *123:65 *132:81 0.000174419
90 *129:49 *132:6 0.000756149
91 *129:49 *132:12 9.41642e-05
92 *129:68 *132:12 9.30342e-05
93 *129:68 *132:31 0.000408247
94 *129:68 *132:56 6.91157e-05
95 *130:65 *710:A1 0.000544559
*RES
1 *688:X *132:6 21.3357 
2 *132:6 *132:12 10.125 
3 *132:12 *710:A1 38.55 
4 *132:12 *132:31 9.53571 
5 *132:31 *780:A1_N 15.1705 
6 *132:31 *132:56 30.9189 
7 *132:56 *715:B 22.7289 
8 *132:56 *132:81 16.469 
9 *132:81 *690:C 38.4071 
10 *132:81 *713:A 20.7643 
11 *132:6 *711:B 35.2821 
*END

*D_NET *133 0.0177232
*CONN
*I *715:C I *D sky130_fd_sc_hd__and3_1
*I *690:D I *D sky130_fd_sc_hd__and4_2
*I *713:B I *D sky130_fd_sc_hd__and3_1
*I *689:X O *D sky130_fd_sc_hd__and2_1
*CAP
1 *715:C 0.0013588
2 *690:D 0.00146473
3 *713:B 8.67035e-05
4 *689:X 0.000425499
5 *133:30 0.00265565
6 *133:10 0.00288852
7 *690:D *707:A 0.000223497
8 *690:D *717:A 3.04311e-05
9 *690:D *816:CLK 5.33005e-05
10 *690:D *825:CLK 3.17148e-05
11 *690:D *834:CLK 0.000126004
12 *690:D *134:6 3.67252e-05
13 *690:D *140:71 0.000145618
14 *690:D *161:8 8.25843e-06
15 *690:D *168:26 0.000175892
16 *690:D *169:71 0.000250915
17 *713:B *718:B1 9.91086e-05
18 *713:B *772:B1 5.33005e-05
19 *715:C *715:A 2.07517e-05
20 *715:C *733:B 0.000107686
21 *715:C *159:39 0.000135028
22 *715:C *168:82 0.000150852
23 *715:C *172:16 4.42631e-05
24 *133:10 *714:A1 9.60939e-05
25 *133:10 *733:B 0.000497783
26 *133:10 *148:62 0.000484699
27 *133:10 *158:20 9.60875e-05
28 *133:10 *173:27 0.000144348
29 *133:30 *693:A 0.000104626
30 *133:30 *834:CLK 0.000434128
31 *133:30 *151:18 0.000165653
32 *133:30 *166:71 0.000167375
33 *133:30 *167:58 0.000193708
34 *133:30 *168:26 0.000432474
35 *133:30 *168:60 0.000135028
36 *690:C *690:D 5.60311e-05
37 *713:A *713:B 9.91086e-05
38 *715:B *715:C 7.38127e-05
39 *785:A *133:30 5.33065e-05
40 *796:A *715:C 0.000350932
41 *812:A *133:30 5.31101e-05
42 *818:RESET_B *133:10 6.057e-07
43 *824:RESET_B *133:30 0.000532848
44 *836:RESET_B *715:C 0
45 *840:D *133:30 0.000606406
46 *841:RESET_B *690:D 0.000297143
47 *26:18 *715:C 4.11218e-05
48 *29:18 *715:C 0.000349732
49 *31:20 *715:C 2.92927e-05
50 *34:14 *133:10 2.12933e-05
51 *39:10 *690:D 0
52 *53:12 *715:C 3.45337e-05
53 *61:18 *690:D 7.83659e-05
54 *91:22 *715:C 0.000508024
55 *95:75 *690:D 4.22367e-05
56 *99:14 *715:C 4.52865e-05
57 *99:14 *133:10 8.14151e-05
58 *109:14 *133:30 3.13225e-05
59 *116:20 *133:30 0.000528697
60 *123:65 *133:10 4.00349e-05
61 *123:65 *133:30 6.82998e-05
62 *132:81 *715:C 0.000174997
*RES
1 *689:X *133:10 24.8 
2 *133:10 *133:30 48.3036 
3 *133:30 *713:B 20.175 
4 *133:30 *690:D 49.5321 
5 *133:10 *715:C 44.1645 
*END

*D_NET *134 0.021049
*CONN
*I *717:A I *D sky130_fd_sc_hd__nand2_1
*I *702:C I *D sky130_fd_sc_hd__nand4b_2
*I *696:C I *D sky130_fd_sc_hd__and4_1
*I *704:A2 I *D sky130_fd_sc_hd__a31o_1
*I *706:C I *D sky130_fd_sc_hd__and4_1
*I *690:X O *D sky130_fd_sc_hd__and4_2
*CAP
1 *717:A 0.00116351
2 *702:C 0.000109135
3 *696:C 0.000646357
4 *704:A2 0.000656385
5 *706:C 7.70325e-05
6 *690:X 0
7 *134:31 0.00322714
8 *134:25 0.00258472
9 *134:6 0.000897579
10 *134:4 0.00143288
11 *696:C *696:A 0
12 *696:C *829:CLK 0.000193377
13 *696:C *139:98 0.000177567
14 *696:C *170:16 0.000756229
15 *702:C *759:A 4.87953e-05
16 *702:C *772:B1 4.87953e-05
17 *704:A2 *704:A1 0.000272596
18 *704:A2 *846:A 0.00019484
19 *704:A2 *135:22 1.00375e-05
20 *704:A2 *135:30 0.000219366
21 *704:A2 *139:98 0.000242119
22 *704:A2 *155:14 9.50446e-05
23 *717:A *738:A3 0
24 *717:A *147:14 0.000654297
25 *717:A *169:71 0.000292437
26 *134:6 *690:B 2.68274e-05
27 *134:25 *144:16 9.78828e-05
28 *134:31 *162:12 0.000786621
29 *690:C *134:6 4.23644e-06
30 *690:D *717:A 3.04311e-05
31 *690:D *134:6 3.67252e-05
32 *717:B *706:C 4.08637e-05
33 *717:B *134:6 5.33005e-05
34 *717:B *134:25 9.78828e-05
35 *718:A1 *134:31 9.15496e-05
36 *752:A_N *696:C 0.000756229
37 *755:B *696:C 2.23393e-05
38 *798:A *704:A2 0.000252294
39 *5:13 *134:31 0.000819274
40 *19:12 *696:C 0.000340576
41 *19:12 *704:A2 8.9799e-05
42 *22:10 *134:25 9.85571e-05
43 *39:10 *717:A 0
44 *56:18 *717:A 0
45 *64:14 *717:A 0.000991771
46 *71:18 *134:25 8.83565e-05
47 *77:58 *706:C 5.33005e-05
48 *82:154 *702:C 0.000222146
49 *82:154 *134:25 0.000367206
50 *83:16 *134:25 1.73191e-05
51 *93:26 *134:31 9.00639e-05
52 *121:12 *702:C 0.000229455
53 *121:12 *134:25 0.00050008
54 *127:12 *704:A2 0.000550312
55 *130:101 *134:25 0.000216755
56 *130:107 *704:A2 7.6644e-05
*RES
1 *690:X *134:4 9.3 
2 *134:4 *134:6 3.41071 
3 *134:6 *706:C 10.2464 
4 *134:6 *134:25 26.5446 
5 *134:25 *134:31 11.2631 
6 *134:31 *704:A2 31.7196 
7 *134:31 *696:C 33.6304 
8 *134:25 *702:C 17.7554 
9 *134:4 *717:A 45.8357 
*END

*D_NET *135 0.0206553
*CONN
*I *763:A I *D sky130_fd_sc_hd__nand2_1
*I *768:C I *D sky130_fd_sc_hd__and4_1
*I *770:D I *D sky130_fd_sc_hd__and4_1
*I *695:A I *D sky130_fd_sc_hd__and4_2
*I *691:X O *D sky130_fd_sc_hd__and4_1
*CAP
1 *763:A 2.30855e-05
2 *768:C 3.93988e-05
3 *770:D 1.76505e-05
4 *695:A 0.000189559
5 *691:X 0.000907049
6 *135:66 0.00160958
7 *135:60 0.00187942
8 *135:30 0.000920475
9 *135:22 0.00130572
10 *135:14 0.00121335
11 *695:A *770:C 1.74852e-05
12 *770:D *770:C 1.98839e-05
13 *135:14 *733:B 0.000125731
14 *135:14 *846:A 0.00016743
15 *135:14 *172:26 0.00192866
16 *135:22 *846:A 0.000360128
17 *135:22 *139:76 0.000306499
18 *135:22 *155:14 0.000437264
19 *135:30 *704:A1 2.12647e-05
20 *135:30 *766:A 1.35553e-05
21 *135:30 *818:CLK 2.13481e-06
22 *135:60 *139:12 9.55443e-05
23 *135:60 *139:14 7.74068e-05
24 *135:66 *768:A 2.83514e-05
25 *135:66 *771:B2 1.50181e-05
26 *135:66 *820:CLK 2.16719e-05
27 *135:66 *139:14 0.000202491
28 *135:66 *143:90 0.00085662
29 *135:66 *145:18 1.71111e-05
30 *135:66 *148:62 2.59355e-05
31 *704:A2 *135:22 1.00375e-05
32 *704:A2 *135:30 0.000219366
33 *704:A3 *135:30 0.000252202
34 *709:A1 *695:A 0.000113933
35 *709:A1 *770:D 5.33005e-05
36 *709:A2 *695:A 5.04841e-06
37 *724:B *135:66 1.8584e-05
38 *750:A *135:60 5.81077e-05
39 *750:A *135:66 0.000781396
40 *766:B *135:60 0.00034619
41 *771:A1_N *135:66 9.10431e-06
42 *771:A2_N *135:66 8.12454e-05
43 *816:RESET_B *135:14 0.000718513
44 *831:D *135:66 0.000759314
45 *19:12 *135:22 0.000486808
46 *19:12 *135:60 5.49489e-05
47 *43:14 *135:14 0.000430577
48 *53:12 *135:14 0.000148911
49 *70:16 *695:A 4.67829e-05
50 *74:14 *135:30 3.06878e-06
51 *75:56 *695:A 9.66977e-05
52 *77:14 *695:A 9.35114e-06
53 *77:22 *135:30 0.000220575
54 *83:26 *695:A 1.21258e-05
55 *94:16 *135:66 2.26424e-05
56 *97:14 *135:66 5.08826e-05
57 *99:14 *135:14 4.58194e-05
58 *101:10 *135:66 0.00177674
59 *109:14 *135:14 0.000260574
60 *110:126 *135:66 0.000586918
61 *111:18 *135:30 3.8206e-05
62 *116:20 *135:14 1.17968e-05
63 *119:10 *135:60 3.14003e-05
64 *130:107 *135:14 3.30237e-05
65 *130:107 *135:22 1.56e-05
*RES
1 *691:X *135:14 42.675 
2 *135:14 *135:22 18.9107 
3 *135:22 *135:30 19.375 
4 *135:30 *695:A 13.6929 
5 *135:30 *770:D 9.83571 
6 *135:22 *135:60 11.125 
7 *135:60 *135:66 49.625 
8 *135:66 *768:C 10.0321 
9 *135:14 *763:A 9.72857 
*END

*D_NET *136 0.0116378
*CONN
*I *846:A I *D sky130_fd_sc_hd__clkbuf_16
*I *847:A I *D sky130_fd_sc_hd__clkbuf_16
*I *845:A I *D sky130_fd_sc_hd__clkbuf_16
*I *844:A I *D sky130_fd_sc_hd__clkbuf_16
*I *843:X O *D sky130_fd_sc_hd__clkbuf_16
*CAP
1 *846:A 0.000736069
2 *847:A 0
3 *845:A 0
4 *844:A 0.00027482
5 *843:X 1.47323e-05
6 *136:32 0.00153843
7 *136:14 0.0010072
8 *136:8 0.00154947
9 *844:A *697:A 0.000146898
10 *846:A *733:A 5.49544e-05
11 *846:A *733:B 0.000122394
12 *846:A *139:76 2.28499e-05
13 *846:A *139:85 1.00073e-05
14 *846:A *155:14 0.000223954
15 *846:A *163:26 7.40526e-05
16 *136:8 *854:A 5.49489e-05
17 *136:8 *142:168 2.84026e-05
18 *136:14 *697:A 9.21933e-05
19 *136:14 *151:14 1.177e-05
20 *136:32 *714:A1 0
21 *136:32 *759:C 0.000225424
22 *136:32 *767:A 0.000257418
23 *136:32 *146:53 0.000130901
24 *136:32 *151:14 0.00014352
25 *704:A2 *846:A 0.00019484
26 *813:RESET_B *136:14 0.00031632
27 *813:RESET_B *136:32 0.000121842
28 *818:RESET_B *844:A 5.52238e-05
29 *827:RESET_B *136:14 0.000930365
30 *831:RESET_B *844:A 8.97968e-05
31 *24:16 *136:32 0
32 *43:38 *136:14 0.000302049
33 *78:22 *844:A 7.1959e-05
34 *89:42 *136:32 0.000488888
35 *91:40 *846:A 8.25843e-06
36 *91:40 *136:32 1.58163e-05
37 *109:14 *846:A 0.000222666
38 *110:58 *846:A 7.55769e-05
39 *126:32 *136:14 0
40 *126:32 *136:32 0
41 *126:63 *136:14 0
42 *129:14 *844:A 0.000394502
43 *129:14 *136:14 0.000185118
44 *130:107 *846:A 0.000896709
45 *130:107 *136:32 1.98839e-05
46 *135:14 *846:A 0.00016743
47 *135:22 *846:A 0.000360128
*RES
1 *843:X *136:8 14.3357 
2 *136:8 *136:14 23.0893 
3 *136:14 *844:A 15.9964 
4 *136:14 *845:A 9.3 
5 *136:8 *136:32 22.1607 
6 *136:32 *847:A 9.3 
7 *136:32 *846:A 45.9429 
*END

*D_NET *137 0.0133276
*CONN
*I *848:A I *D sky130_fd_sc_hd__clkbuf_4
*I *833:CLK I *D sky130_fd_sc_hd__dfrtp_2
*I *822:CLK I *D sky130_fd_sc_hd__dfrtp_2
*I *823:CLK I *D sky130_fd_sc_hd__dfrtp_4
*I *837:CLK I *D sky130_fd_sc_hd__dfrtp_1
*I *815:CLK I *D sky130_fd_sc_hd__dfrtp_4
*I *838:CLK I *D sky130_fd_sc_hd__dfrtp_1
*I *831:CLK I *D sky130_fd_sc_hd__dfrtp_1
*I *844:X O *D sky130_fd_sc_hd__clkbuf_16
*CAP
1 *848:A 3.47587e-05
2 *833:CLK 1.37464e-05
3 *822:CLK 4.88588e-05
4 *823:CLK 0.000303514
5 *837:CLK 0.000359516
6 *815:CLK 6.43604e-05
7 *838:CLK 0.00106413
8 *831:CLK 0.000502863
9 *844:X 6.61491e-05
10 *137:70 0.000460631
11 *137:66 0.000264742
12 *137:64 0.000306651
13 *137:27 0.00129842
14 *137:25 0.000529447
15 *137:10 0.000846165
16 *137:8 0.000538606
17 *822:CLK *165:10 4.87854e-05
18 *823:CLK *166:22 0.00076773
19 *831:CLK *710:B1 5.37174e-05
20 *833:CLK *146:22 2.27416e-05
21 *837:CLK *167:16 0.000195547
22 *838:CLK *146:22 7.6644e-05
23 *838:CLK *164:32 8.49612e-06
24 *137:8 *710:B1 1.98839e-05
25 *137:10 *710:B1 7.39756e-05
26 *137:64 *150:10 0.000126289
27 *137:64 *166:22 0.000271194
28 *137:66 *166:22 0.000191767
29 *137:70 *166:22 0.000163396
30 *705:B1 *815:CLK 0.000137983
31 *712:B *823:CLK 0.000135502
32 *728:A *848:A 0.000137983
33 *735:B *837:CLK 0.0008688
34 *739:A_N *838:CLK 9.91086e-05
35 *765:A *823:CLK 5.66943e-05
36 *815:D *815:CLK 7.02611e-05
37 *822:D *823:CLK 0.000116808
38 *822:D *137:70 3.47641e-06
39 *831:RESET_B *137:10 2.79201e-05
40 *838:RESET_B *822:CLK 0.000106661
41 *838:RESET_B *838:CLK 0.00012195
42 *18:10 *823:CLK 5.16366e-05
43 *18:10 *137:66 0.00010707
44 *18:10 *137:70 5.18646e-05
45 *18:20 *137:66 1.09232e-05
46 *27:14 *137:64 6.76246e-05
47 *27:14 *137:66 4.84319e-05
48 *29:24 *838:CLK 4.00679e-05
49 *75:56 *837:CLK 0.000834073
50 *75:56 *137:27 0.000234322
51 *75:58 *838:CLK 0.000253814
52 *75:58 *137:27 0.000169797
53 *82:10 *838:CLK 9.60939e-05
54 *82:46 *838:CLK 0.000136042
55 *82:46 *137:27 0.000174618
56 *82:67 *837:CLK 8.48721e-05
57 *82:67 *137:27 2.08218e-05
58 *89:8 *823:CLK 0.000172793
59 *104:22 *833:CLK 2.89114e-05
60 *105:14 *848:A 0.000137983
*RES
1 *844:X *137:8 10.2643 
2 *137:8 *137:10 3.82143 
3 *137:10 *831:CLK 15.3357 
4 *137:10 *137:25 4.5 
5 *137:25 *137:27 5.28571 
6 *137:27 *838:CLK 28.7821 
7 *137:27 *815:CLK 15.5857 
8 *137:25 *837:CLK 27.5857 
9 *137:8 *137:64 8.26786 
10 *137:64 *137:66 4.375 
11 *137:66 *137:70 2.78571 
12 *137:70 *823:CLK 23.9429 
13 *137:70 *822:CLK 15.175 
14 *137:66 *833:CLK 14.3357 
15 *137:64 *848:A 15.1571 
*END

*D_NET *138 0.00806145
*CONN
*I *826:CLK I *D sky130_fd_sc_hd__dfrtp_2
*I *849:A I *D sky130_fd_sc_hd__clkbuf_4
*I *813:CLK I *D sky130_fd_sc_hd__dfrtp_4
*I *839:CLK I *D sky130_fd_sc_hd__dfrtp_1
*I *835:CLK I *D sky130_fd_sc_hd__dfrtp_2
*I *827:CLK I *D sky130_fd_sc_hd__dfrtp_1
*I *832:CLK I *D sky130_fd_sc_hd__dfrtp_1
*I *821:CLK I *D sky130_fd_sc_hd__dfrtp_2
*I *845:X O *D sky130_fd_sc_hd__clkbuf_16
*CAP
1 *826:CLK 0.000117176
2 *849:A 0
3 *813:CLK 0.000363413
4 *839:CLK 0.000143436
5 *835:CLK 0
6 *827:CLK 4.27663e-05
7 *832:CLK 2.26509e-05
8 *821:CLK 0.000439495
9 *845:X 0
10 *138:65 0.000622496
11 *138:63 0.000442552
12 *138:34 4.27663e-05
13 *138:12 0.000660902
14 *138:10 0.000318528
15 *138:8 0.000418494
16 *138:6 0.000221579
17 *821:CLK *778:A 6.79143e-05
18 *827:CLK *154:8 4.92036e-05
19 *839:CLK *159:10 4.11862e-05
20 *138:8 *152:50 0.000128909
21 *138:10 *152:35 4.75152e-06
22 *138:10 *154:27 4.49969e-05
23 *138:12 *778:A 9.36142e-05
24 *138:12 *154:27 2.97756e-05
25 *138:63 *152:50 5.28196e-05
26 *739:A_N *832:CLK 3.67142e-05
27 *777:A *813:CLK 1.83136e-05
28 *810:A *138:8 0.000112875
29 *810:A *138:10 8.32242e-05
30 *813:D *813:CLK 8.9971e-05
31 *821:D *821:CLK 0.000309389
32 *831:RESET_B *839:CLK 0.000266533
33 *831:RESET_B *138:8 0.000283944
34 *831:RESET_B *138:10 1.02504e-05
35 *839:D *839:CLK 7.24613e-05
36 *22:20 *832:CLK 9.86146e-05
37 *38:18 *821:CLK 0.000204325
38 *38:18 *138:8 4.84826e-05
39 *38:18 *138:10 0.000122417
40 *38:18 *138:12 0.000188067
41 *38:18 *138:63 5.83677e-05
42 *40:14 *813:CLK 0.000140856
43 *40:14 *826:CLK 0.000251981
44 *40:14 *138:65 0.000542305
45 *96:12 *827:CLK 7.40432e-05
46 *116:59 *813:CLK 0.00012449
47 *126:63 *813:CLK 0.000554398
*RES
1 *845:X *138:6 13.8 
2 *138:6 *138:8 4.98214 
3 *138:8 *138:10 3.16071 
4 *138:10 *138:12 4.98214 
5 *138:12 *821:CLK 24.2464 
6 *138:12 *832:CLK 14.7464 
7 *138:10 *138:34 4.5 
8 *138:34 *827:CLK 10.6571 
9 *138:34 *835:CLK 9.3 
10 *138:8 *839:CLK 17.6571 
11 *138:6 *138:63 6.14286 
12 *138:63 *138:65 5.46429 
13 *138:65 *813:CLK 27.7286 
14 *138:65 *849:A 9.3 
15 *138:63 *826:CLK 11.8893 
*END

*D_NET *139 0.014908
*CONN
*I *829:CLK I *D sky130_fd_sc_hd__dfrtp_2
*I *819:CLK I *D sky130_fd_sc_hd__dfrtp_2
*I *836:CLK I *D sky130_fd_sc_hd__dfrtp_1
*I *850:A I *D sky130_fd_sc_hd__clkbuf_4
*I *830:CLK I *D sky130_fd_sc_hd__dfrtp_1
*I *818:CLK I *D sky130_fd_sc_hd__dfrtp_2
*I *817:CLK I *D sky130_fd_sc_hd__dfrtp_2
*I *820:CLK I *D sky130_fd_sc_hd__dfrtp_1
*I *846:X O *D sky130_fd_sc_hd__clkbuf_16
*CAP
1 *829:CLK 0.000200968
2 *819:CLK 0
3 *836:CLK 0.000853259
4 *850:A 0
5 *830:CLK 4.03484e-05
6 *818:CLK 0.000475894
7 *817:CLK 0.000444413
8 *820:CLK 0.000270937
9 *846:X 0.000166227
10 *139:98 0.000586411
11 *139:85 0.00136237
12 *139:76 0.000306998
13 *139:14 0.000978288
14 *139:12 0.000867175
15 *139:10 0.000280884
16 *139:8 0.000461744
17 *817:CLK *689:A 9.41642e-05
18 *817:CLK *158:20 5.96516e-05
19 *818:CLK *692:D 9.87489e-05
20 *818:CLK *704:A1 3.2033e-05
21 *818:CLK *766:A 5.22622e-05
22 *818:CLK *148:24 6.7531e-05
23 *818:CLK *148:56 3.64218e-05
24 *820:CLK *166:55 8.29486e-05
25 *829:CLK *696:A 5.85455e-05
26 *829:CLK *141:100 5.50052e-05
27 *829:CLK *161:67 4.7089e-05
28 *830:CLK *168:82 4.97967e-05
29 *836:CLK *155:14 1.22751e-05
30 *836:CLK *172:16 1.19524e-05
31 *139:85 *155:14 2.13481e-06
32 *696:C *829:CLK 0.000193377
33 *696:C *139:98 0.000177567
34 *704:A2 *139:98 0.000242119
35 *704:A3 *817:CLK 3.18676e-05
36 *709:A1 *818:CLK 9.41642e-05
37 *735:A *817:CLK 1.04232e-05
38 *750:A *820:CLK 5.33005e-05
39 *750:A *139:76 1.99394e-05
40 *754:B *830:CLK 3.50746e-05
41 *762:A1 *818:CLK 2.89219e-05
42 *780:B1 *818:CLK 4.4482e-05
43 *836:RESET_B *836:CLK 4.70821e-05
44 *837:RESET_B *820:CLK 0.00038527
45 *846:A *139:76 2.28499e-05
46 *846:A *139:85 1.00073e-05
47 *26:18 *836:CLK 0.000215469
48 *29:14 *830:CLK 9.67754e-05
49 *53:12 *139:8 0.000221641
50 *55:14 *818:CLK 5.49489e-05
51 *55:14 *139:10 0.000200958
52 *55:14 *139:12 0.000257185
53 *55:14 *139:76 0.00013687
54 *92:38 *829:CLK 2.06178e-05
55 *97:36 *817:CLK 0.000185714
56 *97:36 *820:CLK 0.000137561
57 *99:14 *817:CLK 0.000977685
58 *99:24 *817:CLK 2.89114e-05
59 *101:10 *820:CLK 0.000285064
60 *110:16 *820:CLK 0.000329993
61 *110:16 *139:12 6.35443e-06
62 *110:16 *139:14 0.000331027
63 *119:10 *139:10 9.6021e-05
64 *119:10 *139:12 8.80151e-05
65 *119:10 *139:76 3.92854e-05
66 *127:12 *829:CLK 2.30219e-05
67 *127:12 *139:98 0.000855916
68 *130:107 *139:76 0.000160337
69 *135:22 *139:76 0.000306499
70 *135:30 *818:CLK 2.13481e-06
71 *135:60 *139:12 9.55443e-05
72 *135:60 *139:14 7.74068e-05
73 *135:66 *820:CLK 2.16719e-05
74 *135:66 *139:14 0.000202491
*RES
1 *846:X *139:8 15.9786 
2 *139:8 *139:10 2.85714 
3 *139:10 *139:12 3.76786 
4 *139:12 *139:14 6.80357 
5 *139:14 *820:CLK 22.425 
6 *139:14 *817:CLK 24.7464 
7 *139:12 *818:CLK 30.1571 
8 *139:10 *830:CLK 15.175 
9 *139:8 *139:76 9.85714 
10 *139:76 *850:A 9.3 
11 *139:76 *139:85 1.67857 
12 *139:85 *836:CLK 19.6036 
13 *139:85 *139:98 15.8571 
14 *139:98 *819:CLK 13.8 
15 *139:98 *829:CLK 19.3179 
*END

*D_NET *140 0.0129338
*CONN
*I *825:CLK I *D sky130_fd_sc_hd__dfrtp_4
*I *816:CLK I *D sky130_fd_sc_hd__dfrtp_4
*I *834:CLK I *D sky130_fd_sc_hd__dfrtp_1
*I *841:CLK I *D sky130_fd_sc_hd__dfrtp_2
*I *840:CLK I *D sky130_fd_sc_hd__dfrtp_1
*I *824:CLK I *D sky130_fd_sc_hd__dfrtp_1
*I *828:CLK I *D sky130_fd_sc_hd__dfrtp_1
*I *814:CLK I *D sky130_fd_sc_hd__dfrtp_4
*I *847:X O *D sky130_fd_sc_hd__clkbuf_16
*CAP
1 *825:CLK 0.000301338
2 *816:CLK 0.000126005
3 *834:CLK 0.00023581
4 *841:CLK 0
5 *840:CLK 0.000357384
6 *824:CLK 2.8287e-05
7 *828:CLK 0.000324377
8 *814:CLK 0.000562977
9 *847:X 0
10 *140:73 0.000361815
11 *140:71 0.000422083
12 *140:62 0.000239928
13 *140:30 0.000601664
14 *140:26 0.000426974
15 *140:10 0.0012065
16 *140:6 0.000410943
17 *814:CLK *714:A1 0.000136682
18 *816:CLK *168:26 0.000148303
19 *825:CLK *718:B1 2.33777e-05
20 *834:CLK *168:26 0.000129331
21 *840:CLK *759:C 2.70899e-05
22 *840:CLK *767:A 0
23 *840:CLK *151:18 0.000120724
24 *840:CLK *166:71 6.35864e-05
25 *140:30 *690:B 0.00013921
26 *140:30 *776:A 6.57032e-05
27 *140:30 *153:50 8.55871e-05
28 *140:71 *718:B1 7.46421e-05
29 *690:D *816:CLK 5.33005e-05
30 *690:D *825:CLK 3.17148e-05
31 *690:D *834:CLK 0.000126004
32 *690:D *140:71 0.000145618
33 *702:A_N *825:CLK 9.31011e-05
34 *713:A *825:CLK 1.21955e-05
35 *718:A1 *825:CLK 2.30314e-05
36 *753:A *140:10 0.000183617
37 *785:A *840:CLK 0.000156591
38 *814:D *814:CLK 0.000607479
39 *814:D *828:CLK 0.000125443
40 *824:D *824:CLK 4.87953e-05
41 *824:D *140:30 4.58976e-05
42 *825:RESET_B *825:CLK 0.00022266
43 *828:D *828:CLK 0.000175892
44 *829:RESET_B *825:CLK 0
45 *840:RESET_B *140:10 0.000209333
46 *840:RESET_B *140:26 0.00010095
47 *840:RESET_B *140:62 0.000134691
48 *840:RESET_B *140:71 4.52236e-05
49 *20:12 *140:10 0.000499549
50 *24:16 *840:CLK 1.80451e-05
51 *43:14 *840:CLK 5.80706e-06
52 *61:18 *140:10 0.000917285
53 *61:18 *140:26 0.000216429
54 *61:18 *140:62 0.000119766
55 *61:18 *140:71 3.2746e-05
56 *77:37 *140:30 6.45913e-05
57 *86:20 *824:CLK 9.71197e-05
58 *86:20 *140:30 0.000296108
59 *89:42 *814:CLK 0.000182266
60 *93:26 *825:CLK 0.000110238
61 *95:75 *825:CLK 8.70963e-05
62 *126:16 *814:CLK 9.41642e-05
63 *128:105 *816:CLK 7.02611e-05
64 *128:115 *816:CLK 0.000103977
65 *128:115 *834:CLK 0.000418923
66 *128:115 *840:CLK 3.47641e-06
67 *133:30 *834:CLK 0.000434128
*RES
1 *847:X *140:6 13.8 
2 *140:6 *140:10 16.4643 
3 *140:10 *814:CLK 21.7464 
4 *140:10 *828:CLK 14.7643 
5 *140:6 *140:26 2.85714 
6 *140:26 *140:30 10.375 
7 *140:30 *824:CLK 10.2464 
8 *140:30 *840:CLK 32.9786 
9 *140:26 *140:62 2.91071 
10 *140:62 *841:CLK 13.8 
11 *140:62 *140:71 2.85714 
12 *140:71 *140:73 4.5 
13 *140:73 *834:CLK 17.2286 
14 *140:73 *816:CLK 12.7107 
15 *140:71 *825:CLK 20.6571 
*END

*D_NET *141 0.0329098
*CONN
*I *723:A I *D sky130_fd_sc_hd__nand2_1
*I *700:A I *D sky130_fd_sc_hd__nor2_1
*I *706:A I *D sky130_fd_sc_hd__and4_1
*I *698:A2 I *D sky130_fd_sc_hd__a21oi_1
*I *687:C I *D sky130_fd_sc_hd__and3_1
*I *708:A I *D sky130_fd_sc_hd__inv_2
*I *813:Q O *D sky130_fd_sc_hd__dfrtp_4
*CAP
1 *723:A 0.000545595
2 *700:A 0
3 *706:A 1.69531e-05
4 *698:A2 0.00111481
5 *687:C 0.000693399
6 *708:A 0.000304288
7 *813:Q 0
8 *141:100 0.00117329
9 *141:92 0.00183746
10 *141:79 0.00144938
11 *141:71 0.00174372
12 *141:37 0.00216808
13 *141:14 0.00215367
14 *141:4 0.00191939
15 *687:C *687:B 9.14714e-06
16 *687:C *760:A1 0.000120451
17 *687:C *771:B2 0.000394152
18 *687:C *774:A 0
19 *687:C *146:22 3.99771e-05
20 *698:A2 *142:45 6.88494e-05
21 *698:A2 *164:47 9.01724e-06
22 *698:A2 *164:85 4.22135e-06
23 *706:A *690:B 5.33005e-05
24 *708:A *144:87 9.41642e-05
25 *708:A *158:20 0.000301314
26 *723:A *722:A 0.00027179
27 *723:A *738:B1 3.77981e-05
28 *723:A *169:16 0.000843367
29 *723:A *169:54 0.000535283
30 *141:14 *738:B1 9.96224e-05
31 *141:14 *145:55 0.0014442
32 *141:14 *159:23 8.24593e-05
33 *141:37 *771:B2 0.000151715
34 *141:37 *157:14 0.000611493
35 *141:71 *738:B1 0.000217447
36 *141:79 *142:168 0.00121134
37 *141:79 *169:54 0.000834717
38 *141:92 *161:21 3.19202e-05
39 *141:92 *165:77 9.15842e-06
40 *141:92 *168:16 0.000136744
41 *141:100 *748:B 0.000209583
42 *141:100 *748:C 0.000332155
43 *141:100 *148:10 3.22234e-05
44 *141:100 *166:71 9.86486e-06
45 *700:B *141:100 5.54817e-06
46 *710:A2 *698:A2 1.68344e-05
47 *711:B *687:C 0.000812045
48 *716:A1_N *723:A 0.000131767
49 *716:A1_N *141:79 0.000177436
50 *728:A *708:A 0.000300301
51 *728:A *141:37 0.000187589
52 *731:A2 *698:A2 0
53 *756:B *687:C 2.11419e-05
54 *772:A1 *141:92 0
55 *772:A2 *141:92 0
56 *773:B *706:A 5.33005e-05
57 *773:B *141:92 0
58 *774:B *687:C 1.38167e-05
59 *777:A *141:14 5.49544e-05
60 *780:A2_N *708:A 9.41642e-05
61 *793:A *141:79 0.000131553
62 *799:A *141:92 0
63 *799:A *141:100 0.000487985
64 *815:RESET_B *687:C 6.11832e-05
65 *815:RESET_B *708:A 1.01403e-05
66 *815:RESET_B *141:14 1.99212e-05
67 *815:RESET_B *141:37 7.44945e-07
68 *816:RESET_B *141:79 0.000327165
69 *816:RESET_B *141:92 0.000323528
70 *821:RESET_B *141:79 0.00069857
71 *829:CLK *141:100 5.50052e-05
72 *829:RESET_B *141:100 0.000658711
73 *831:D *698:A2 0.000322316
74 *835:RESET_B *723:A 5.71472e-05
75 *47:12 *698:A2 3.97677e-05
76 *73:16 *723:A 0.000846861
77 *73:16 *141:79 0.000376552
78 *73:16 *141:92 0.000379776
79 *76:12 *698:A2 5.49489e-05
80 *82:20 *687:C 2.86195e-05
81 *95:37 *698:A2 0.000638226
82 *96:12 *723:A 1.92905e-05
83 *101:10 *141:37 0.000337269
84 *108:14 *141:100 0.0017914
85 *119:29 *141:79 0
86 *121:12 *141:92 0
87 *131:16 *687:C 5.66971e-05
*RES
1 *813:Q *141:4 9.3 
2 *141:4 *141:14 29.9821 
3 *141:14 *708:A 24.675 
4 *141:14 *141:37 16.0625 
5 *141:37 *687:C 30.9339 
6 *141:37 *698:A2 24.6071 
7 *141:4 *141:71 6.69643 
8 *141:71 *141:79 31.6964 
9 *141:79 *706:A 14.3357 
10 *141:79 *141:92 19.1964 
11 *141:92 *141:100 44.125 
12 *141:100 *700:A 9.3 
13 *141:71 *723:A 37.925 
*END

*D_NET *142 0.0317406
*CONN
*I *707:A I *D sky130_fd_sc_hd__xor2_1
*I *699:B I *D sky130_fd_sc_hd__or3b_2
*I *729:B I *D sky130_fd_sc_hd__or3_1
*I *725:A2 I *D sky130_fd_sc_hd__a2111o_1
*I *724:A I *D sky130_fd_sc_hd__nor2_1
*I *687:B I *D sky130_fd_sc_hd__and3_1
*I *731:A1 I *D sky130_fd_sc_hd__a21boi_1
*I *698:A1 I *D sky130_fd_sc_hd__a21oi_1
*I *727:A2 I *D sky130_fd_sc_hd__o21a_1
*I *814:Q O *D sky130_fd_sc_hd__dfrtp_4
*CAP
1 *707:A 0.000161061
2 *699:B 0.000170739
3 *729:B 0.000110462
4 *725:A2 0.000553032
5 *724:A 0.000107476
6 *687:B 5.2101e-05
7 *731:A1 0.000188773
8 *698:A1 0
9 *727:A2 5.40028e-05
10 *814:Q 0.000115446
11 *142:168 0.00170726
12 *142:136 0.000500794
13 *142:130 0.00263747
14 *142:75 0.00130027
15 *142:58 0.0019588
16 *142:45 0.00168807
17 *142:20 0.00121905
18 *142:14 0.00143177
19 *142:10 0.00175956
20 *687:B *760:A1 5.52084e-05
21 *687:B *774:A 9.0043e-05
22 *699:B *144:66 4.88631e-05
23 *707:A *161:8 6.57032e-05
24 *724:A *747:A 4.9533e-05
25 *724:A *143:90 6.27272e-06
26 *725:A2 *725:A1 7.7287e-05
27 *725:A2 *725:D1 0.000174548
28 *725:A2 *172:16 2.97464e-05
29 *727:A2 *145:16 0.000185118
30 *729:B *166:55 0.000135028
31 *142:20 *145:16 0.000124013
32 *142:45 *694:C 0.00036845
33 *142:45 *694:D 9.11048e-06
34 *142:45 *725:A1 0.00030139
35 *142:45 *143:55 0.000408622
36 *142:45 *145:40 0.000157181
37 *142:45 *164:47 1.32921e-05
38 *142:45 *164:85 4.17661e-06
39 *142:58 *143:26 8.42609e-05
40 *142:58 *143:34 9.60875e-05
41 *142:58 *168:84 0
42 *142:58 *175:10 9.97744e-05
43 *142:75 *747:A 0.000147367
44 *142:75 *166:14 0.000164619
45 *142:130 *854:A 0.000216755
46 *142:130 *163:20 8.18233e-06
47 *142:136 *163:20 0.000219711
48 *142:168 *706:B 0.000212804
49 *142:168 *854:A 0.000540628
50 *142:168 *161:21 3.34366e-05
51 *142:168 *163:20 0.000140088
52 *142:168 *166:55 0.000677149
53 *687:C *687:B 9.14714e-06
54 *690:C *707:A 1.68707e-05
55 *690:D *707:A 0.000223497
56 *698:A2 *142:45 6.88494e-05
57 *705:A2 *142:58 0.000139512
58 *707:B *707:A 9.71197e-05
59 *710:A1 *142:45 1.5739e-05
60 *712:A *142:45 0.000207973
61 *716:A1_N *142:168 0.000130975
62 *760:A3 *724:A 0.000251506
63 *760:A3 *142:75 0.00158245
64 *780:B1 *142:10 0.000280802
65 *784:A *727:A2 4.73286e-05
66 *793:A *142:168 0.000122417
67 *814:RESET_B *142:10 0.000280802
68 *814:RESET_B *142:14 0.00101084
69 *814:RESET_B *142:130 4.17433e-05
70 *816:RESET_B *142:168 0.000488576
71 *817:D *725:A2 0
72 *817:RESET_B *725:A2 0.000192335
73 *817:RESET_B *142:20 0.000100831
74 *818:RESET_B *699:B 7.83659e-05
75 *818:RESET_B *142:136 3.93335e-05
76 *820:RESET_B *142:130 0
77 *5:13 *142:168 2.5738e-05
78 *28:12 *142:58 0.000667341
79 *29:24 *142:58 0
80 *31:12 *142:45 0
81 *31:20 *725:A2 1.0033e-05
82 *34:14 *142:136 0.000124525
83 *71:18 *707:A 4.58194e-05
84 *76:12 *142:45 9.77264e-06
85 *76:12 *142:58 6.12434e-05
86 *80:24 *731:A1 0.000141036
87 *81:26 *725:A2 0.000181381
88 *89:18 *699:B 2.66057e-05
89 *89:42 *699:B 2.2628e-05
90 *89:42 *142:136 0.000217163
91 *96:39 *727:A2 9.83388e-05
92 *96:39 *142:20 0.000135028
93 *97:14 *724:A 9.60337e-06
94 *97:36 *725:A2 4.27338e-05
95 *103:30 *725:A2 1.62621e-05
96 *106:16 *725:A2 3.97677e-05
97 *106:50 *142:58 1.5942e-05
98 *106:58 *731:A1 5.44204e-05
99 *106:58 *142:58 7.88706e-05
100 *116:59 *142:130 9.97164e-05
101 *129:102 *142:130 0.000338675
102 *130:65 *142:45 0.000123724
103 *130:101 *142:168 0.00117646
104 *131:20 *142:58 0.000650442
105 *136:8 *142:168 2.84026e-05
106 *141:79 *142:168 0.00121134
*RES
1 *814:Q *142:10 22.0679 
2 *142:10 *142:14 14.4821 
3 *142:14 *142:20 7.19643 
4 *142:20 *727:A2 11.4964 
5 *142:20 *142:45 31.5357 
6 *142:45 *698:A1 9.3 
7 *142:45 *142:58 22.4732 
8 *142:58 *731:A1 17.4875 
9 *142:58 *142:75 6.62793 
10 *142:75 *687:B 18.5627 
11 *142:75 *724:A 17.8941 
12 *142:14 *725:A2 33.3179 
13 *142:10 *142:130 19.9107 
14 *142:130 *142:136 9.53571 
15 *142:136 *729:B 15.1571 
16 *142:136 *699:B 16.7286 
17 *142:130 *142:168 49.9107 
18 *142:168 *707:A 13.5321 
*END

*D_NET *143 0.0224569
*CONN
*I *687:A I *D sky130_fd_sc_hd__and3_1
*I *722:B I *D sky130_fd_sc_hd__nor2_2
*I *698:B1 I *D sky130_fd_sc_hd__a21oi_1
*I *725:A1 I *D sky130_fd_sc_hd__a2111o_1
*I *699:C_N I *D sky130_fd_sc_hd__or3b_2
*I *703:A I *D sky130_fd_sc_hd__inv_2
*I *815:Q O *D sky130_fd_sc_hd__dfrtp_4
*CAP
1 *687:A 0
2 *722:B 0.000991026
3 *698:B1 0
4 *725:A1 0.000598972
5 *699:C_N 0.000733769
6 *703:A 2.3932e-05
7 *815:Q 0
8 *143:90 0.0014576
9 *143:55 0.00177104
10 *143:34 0.000678973
11 *143:26 0.00124668
12 *143:4 0.0014965
13 *699:C_N *144:87 0.00145339
14 *703:A *154:46 2.59355e-05
15 *722:B *722:A 8.05752e-05
16 *722:B *774:A 0.000145473
17 *722:B *176:14 0.00284637
18 *725:A1 *172:16 0.000262691
19 *143:34 *164:85 0.000527647
20 *143:55 *154:46 6.2127e-05
21 *143:90 *771:B2 0.000102453
22 *143:90 *774:A 0.000710559
23 AN[1] *722:B 5.41609e-05
24 *705:B1 *143:26 1.50316e-05
25 *712:A *143:26 0.000100413
26 *720:A *143:26 0.000105537
27 *724:A *143:90 6.27272e-06
28 *725:A2 *725:A1 7.7287e-05
29 *731:A2 *143:26 2.49484e-05
30 *736:A *143:90 2.89016e-05
31 *757:A *722:B 0.000926413
32 *774:B *722:B 0
33 *815:D *143:26 0.000641507
34 *815:RESET_B *143:26 0.000115534
35 *817:RESET_B *725:A1 0.00052537
36 *817:RESET_B *143:55 0.000353095
37 *26:18 *699:C_N 0.000136951
38 *27:14 *143:26 5.00099e-05
39 *27:14 *143:90 9.35114e-06
40 *28:12 *143:34 1.27625e-05
41 *31:12 *143:34 0.000146254
42 *76:12 *143:26 9.66977e-05
43 *76:12 *143:34 9.41642e-05
44 *84:10 *703:A 2.59355e-05
45 *84:10 *143:55 6.57032e-05
46 *97:36 *725:A1 0.000305466
47 *98:16 *143:26 5.83304e-05
48 *106:50 *143:34 6.30361e-05
49 *106:50 *143:55 0.000196458
50 *107:18 *143:34 0.000403439
51 *111:12 *699:C_N 0.000218679
52 *117:16 *143:26 0.000319291
53 *117:16 *143:90 0.000180496
54 *132:56 *699:C_N 0.000136682
55 *135:66 *143:90 0.00085662
56 *142:45 *725:A1 0.00030139
57 *142:45 *143:55 0.000408622
58 *142:58 *143:26 8.42609e-05
59 *142:58 *143:34 9.60875e-05
*RES
1 *815:Q *143:4 9.3 
2 *143:4 *143:26 37.7143 
3 *143:26 *143:34 17.6607 
4 *143:34 *703:A 9.83571 
5 *143:34 *143:55 24.875 
6 *143:55 *699:C_N 29.1393 
7 *143:55 *725:A1 26.6571 
8 *143:26 *698:B1 9.3 
9 *143:4 *143:90 18.9643 
10 *143:90 *722:B 45.425 
11 *143:90 *687:A 13.8 
*END

*D_NET *144 0.027476
*CONN
*I *699:A I *D sky130_fd_sc_hd__or3b_2
*I *725:D1 I *D sky130_fd_sc_hd__a2111o_1
*I *727:A1 I *D sky130_fd_sc_hd__o21a_1
*I *729:A I *D sky130_fd_sc_hd__or3_1
*I *697:A I *D sky130_fd_sc_hd__xor2_1
*I *722:A I *D sky130_fd_sc_hd__nor2_2
*I *816:Q O *D sky130_fd_sc_hd__dfrtp_4
*CAP
1 *699:A 0
2 *725:D1 0.0002503
3 *727:A1 0
4 *729:A 5.54826e-05
5 *697:A 0.000772152
6 *722:A 0.00108884
7 *816:Q 0.00111364
8 *144:87 0.00114983
9 *144:66 0.00205289
10 *144:18 0.00227615
11 *144:16 0.00262667
12 *722:A *169:16 0.000202704
13 *722:A *176:14 3.74428e-05
14 *729:A *145:18 0.000198698
15 *144:18 *738:A3 1.11775e-05
16 *144:18 *145:55 1.42331e-05
17 *144:87 *694:C 0.000301438
18 *144:87 *751:B1 0.000175892
19 *699:B *144:66 4.88631e-05
20 *699:C_N *144:87 0.00145339
21 *708:A *144:87 9.41642e-05
22 *717:B *144:16 0.00165251
23 *717:B *144:18 0.000176742
24 *722:B *722:A 8.05752e-05
25 *723:A *722:A 0.00027179
26 *725:A2 *725:D1 0.000174548
27 *751:A2 *144:87 0.000333082
28 *773:B *144:16 0.000331064
29 *780:A1_N *144:87 0.00013636
30 *780:A2_N *144:87 7.90832e-05
31 *780:B1 *144:87 3.97677e-05
32 *793:A *144:66 5.49544e-05
33 *831:RESET_B *697:A 0.000898704
34 *844:A *697:A 0.000146898
35 *31:12 *725:D1 0.00025515
36 *31:12 *144:87 0.000369104
37 *31:20 *725:D1 0.000109065
38 *43:38 *144:66 8.80158e-05
39 *55:24 *144:66 0.00013381
40 *64:14 *722:A 0
41 *64:14 *144:18 0
42 *71:18 *144:16 0.000396995
43 *73:8 *697:A 0.000549573
44 *73:16 *722:A 5.66157e-05
45 *73:16 *144:16 0.0013617
46 *73:16 *144:18 0.000959093
47 *82:113 *144:66 0.00172776
48 *82:113 *144:87 0.000261806
49 *92:14 *144:18 0.000134991
50 *95:8 *722:A 0.00107077
51 *95:25 *722:A 3.52836e-05
52 *97:14 *729:A 0.00020042
53 *97:36 *725:D1 5.33005e-05
54 *106:26 *144:87 6.05161e-06
55 *126:32 *144:66 0.000180079
56 *129:14 *697:A 0.000813743
57 *130:12 *144:66 7.67023e-05
58 *130:78 *144:66 0.000145876
59 *134:25 *144:16 9.78828e-05
60 *136:14 *697:A 9.21933e-05
*RES
1 *816:Q *144:16 47.0679 
2 *144:16 *144:18 12.5714 
3 *144:18 *722:A 39.7643 
4 *144:18 *697:A 34.3804 
5 *144:16 *144:66 29.9643 
6 *144:66 *729:A 20.8536 
7 *144:66 *144:87 28.75 
8 *144:87 *727:A1 13.8 
9 *144:87 *725:D1 19.9786 
10 *144:66 *699:A 9.3 
*END

*D_NET *145 0.028157
*CONN
*I *732:A I *D sky130_fd_sc_hd__inv_2
*I *693:B I *D sky130_fd_sc_hd__and4_2
*I *733:B I *D sky130_fd_sc_hd__nand2_1
*I *738:A2 I *D sky130_fd_sc_hd__a31o_1
*I *734:B I *D sky130_fd_sc_hd__or2_1
*I *817:Q O *D sky130_fd_sc_hd__dfrtp_2
*CAP
1 *732:A 2.74829e-05
2 *693:B 0.000586837
3 *733:B 0.000894611
4 *738:A2 0
5 *734:B 0
6 *817:Q 5.54804e-05
7 *145:91 0.000980402
8 *145:55 0.000934884
9 *145:40 0.00104604
10 *145:18 0.00228729
11 *145:16 0.00295461
12 *145:8 0.00217519
13 *693:B *842:A 0.000718399
14 *693:B *172:16 0.00030319
15 *732:A *715:A 0.000139208
16 *733:B *733:A 5.49544e-05
17 *733:B *738:A3 0.000145929
18 *733:B *148:62 7.48542e-06
19 *733:B *163:26 0.00040955
20 *145:16 *164:85 0.000196269
21 *145:18 *148:62 3.14113e-05
22 *145:40 *694:C 0.000169233
23 *145:40 *855:A 0.000841654
24 *145:40 *154:46 0.000241964
25 *145:55 *769:A1 0.000403753
26 *145:91 *715:A 0.000225982
27 *145:91 *164:85 0.000435505
28 *145:91 *164:93 0.000411825
29 *710:A1 *145:40 0.000170385
30 *715:C *733:B 0.000107686
31 *727:A2 *145:16 0.000185118
32 *729:A *145:18 0.000198698
33 *750:A *733:B 7.18171e-05
34 *769:A2 *145:55 0.000599063
35 *769:B1_N *145:55 0.000517004
36 *784:A *145:16 8.96922e-05
37 *815:RESET_B *145:55 5.26953e-05
38 *818:RESET_B *733:B 2.70899e-05
39 *830:RESET_B *732:A 0.000127678
40 *830:RESET_B *145:91 0.000392027
41 *840:D *693:B 5.32982e-05
42 *843:A *733:B 1.01912e-05
43 *846:A *733:B 0.000122394
44 *20:12 *145:55 0.000928494
45 *31:20 *693:B 0.000160903
46 *75:25 *145:91 0.000364645
47 *76:12 *145:91 5.49257e-05
48 *77:86 *693:B 8.71047e-05
49 *84:10 *145:40 0.000849426
50 *92:14 *145:55 0.000100248
51 *96:39 *145:16 0.000321014
52 *97:14 *145:18 0.000167916
53 *97:14 *145:40 0.000144224
54 *97:36 *733:B 0.000297773
55 *97:36 *145:18 0.000118986
56 *99:14 *733:B 0.000156493
57 *103:30 *733:B 0.000236887
58 *106:16 *145:91 1.81805e-05
59 *106:26 *145:16 0.000200406
60 *106:26 *145:91 0.000311495
61 *106:50 *145:40 5.86821e-06
62 *107:18 *145:40 0.000137639
63 *109:14 *733:B 1.33343e-05
64 *110:126 *145:18 0.000461718
65 *110:126 *145:40 0.000196682
66 *116:20 *733:B 0.000756523
67 *129:70 *145:16 7.46017e-05
68 *129:102 *145:16 0.000161462
69 *130:65 *145:40 4.58194e-05
70 *133:10 *733:B 0.000497783
71 *135:14 *733:B 0.000125731
72 *135:66 *145:18 1.71111e-05
73 *141:14 *145:55 0.0014442
74 *142:20 *145:16 0.000124013
75 *142:45 *145:40 0.000157181
76 *144:18 *145:55 1.42331e-05
*RES
1 *817:Q *145:8 14.3357 
2 *145:8 *145:16 31.3929 
3 *145:16 *145:18 8.625 
4 *145:18 *145:40 46.7857 
5 *145:40 *734:B 9.3 
6 *145:18 *145:55 41.4464 
7 *145:55 *738:A2 9.3 
8 *145:16 *733:B 41.9844 
9 *145:8 *145:91 19.0714 
10 *145:91 *693:B 41.7821 
11 *145:91 *732:A 10.6571 
*END

*D_NET *146 0.0227308
*CONN
*I *759:C I *D sky130_fd_sc_hd__and3_1
*I *691:D I *D sky130_fd_sc_hd__and4_1
*I *760:B1 I *D sky130_fd_sc_hd__a31o_1
*I *827:Q O *D sky130_fd_sc_hd__dfrtp_1
*CAP
1 *759:C 0.000529087
2 *691:D 0.000385627
3 *760:B1 0.000201789
4 *827:Q 0
5 *146:53 0.00530156
6 *146:22 0.00169225
7 *146:4 0.00587731
8 *691:D *691:B 5.33005e-05
9 *691:D *147:16 0.00121307
10 *691:D *159:39 9.60939e-05
11 *691:D *172:26 0.000465855
12 *759:C *759:A 0.000197215
13 *759:C *767:A 0.000687471
14 *759:C *151:14 0.000386741
15 *759:C *151:18 9.98998e-06
16 *759:C *166:71 0.000496792
17 *760:B1 *760:A1 0.000656939
18 *760:B1 *760:A2 2.36643e-05
19 *146:22 *771:B2 7.81028e-05
20 *146:22 *774:A 5.22658e-05
21 *146:53 *151:14 0.000130097
22 *146:53 *152:35 9.09539e-05
23 *687:C *146:22 3.99771e-05
24 *730:A *146:22 4.27437e-05
25 *731:A2 *146:22 0
26 *739:A_N *146:22 0.000137397
27 *741:B *146:22 9.41642e-05
28 *761:A2 *146:53 5.26224e-05
29 *767:C *759:C 6.41415e-05
30 *785:A *691:D 9.60875e-05
31 *786:A *691:D 4.08637e-05
32 *827:D *146:53 5.94205e-05
33 *833:CLK *146:22 2.27416e-05
34 *833:RESET_B *146:22 0.000207537
35 *836:RESET_B *146:53 0
36 *838:CLK *146:22 7.6644e-05
37 *840:CLK *759:C 2.70899e-05
38 *69:12 *759:C 0.000425226
39 *80:24 *146:22 8.74803e-05
40 *82:20 *146:22 0.000445282
41 *82:46 *146:22 9.97669e-05
42 *95:37 *146:53 1.90269e-05
43 *96:12 *146:22 0.000259273
44 *96:12 *146:53 5.7912e-05
45 *104:22 *146:22 0.000287889
46 *105:14 *146:53 0.000274558
47 *117:16 *760:B1 0.000485078
48 *126:63 *146:53 0
49 *132:81 *146:53 0.000345429
50 *136:32 *759:C 0.000225424
51 *136:32 *146:53 0.000130901
*RES
1 *827:Q *146:4 9.3 
2 *146:4 *146:22 44.5536 
3 *146:22 *760:B1 16.425 
4 *146:4 *146:53 33.3062 
5 *146:53 *691:D 25.8357 
6 *146:53 *759:C 31.5321 
*END

*D_NET *147 0.0151619
*CONN
*I *691:C I *D sky130_fd_sc_hd__and4_1
*I *767:A I *D sky130_fd_sc_hd__and4_1
*I *762:B1 I *D sky130_fd_sc_hd__a21oi_1
*I *828:Q O *D sky130_fd_sc_hd__dfrtp_1
*CAP
1 *691:C 0
2 *767:A 0.000914381
3 *762:B1 0.00133511
4 *828:Q 0.000869161
5 *147:16 0.00328985
6 *147:14 0.00190952
7 *762:B1 *692:D 3.03209e-05
8 *762:B1 *770:B 0.000376495
9 *762:B1 *148:22 0.000245556
10 *762:B1 *159:39 2.09072e-05
11 *767:A *749:A 0
12 *767:A *166:71 0.000160591
13 *147:14 *691:B 2.59355e-05
14 *147:14 *172:26 0.000613428
15 *147:16 *691:B 1.98839e-05
16 *147:16 *159:39 3.97677e-05
17 seg[2] *147:14 0.000114159
18 *691:D *147:16 0.00121307
19 *715:B *762:B1 0.000411192
20 *717:A *147:14 0.000654297
21 *759:C *767:A 0.000687471
22 *762:A2 *762:B1 4.14788e-05
23 *840:CLK *767:A 0
24 *19:12 *762:B1 9.66875e-05
25 *24:16 *767:A 0
26 *26:18 *762:B1 0.000224805
27 *43:14 *767:A 0
28 *64:14 *147:14 0
29 *84:10 *762:B1 0.000147091
30 *91:22 *762:B1 0.00122847
31 *91:40 *767:A 0.000163989
32 *108:14 *767:A 0
33 *128:115 *767:A 0
34 *132:56 *762:B1 5.09065e-05
35 *132:81 *762:B1 1.99092e-05
36 *136:32 *767:A 0.000257418
*RES
1 *828:Q *147:14 34.2643 
2 *147:14 *147:16 13.2679 
3 *147:16 *762:B1 44.6555 
4 *147:16 *767:A 36.3893 
5 *147:14 *691:C 9.3 
*END

*D_NET *148 0.0197629
*CONN
*I *767:B I *D sky130_fd_sc_hd__and4_1
*I *692:B I *D sky130_fd_sc_hd__and4_1
*I *768:B I *D sky130_fd_sc_hd__and4_1
*I *770:B I *D sky130_fd_sc_hd__and4_1
*I *766:A I *D sky130_fd_sc_hd__xnor2_1
*I *829:Q O *D sky130_fd_sc_hd__dfrtp_2
*CAP
1 *767:B 0.000213701
2 *692:B 0
3 *768:B 0
4 *770:B 0.000509972
5 *766:A 2.67522e-05
6 *829:Q 0.000255532
7 *148:62 0.00137571
8 *148:56 0.00150986
9 *148:24 0.000570836
10 *148:22 0.000977566
11 *148:16 0.00122529
12 *148:10 0.000885217
13 *770:B *155:14 1.94135e-05
14 *770:B *167:16 0.000134283
15 *148:10 *167:58 0
16 *148:16 *167:58 0
17 *148:22 *755:A 0
18 *148:22 *779:A 0.000211491
19 *148:62 *768:A 5.49995e-05
20 *148:62 *774:A 0.000103267
21 *148:62 *152:35 0.00013512
22 *148:62 *154:46 0.000520249
23 *148:62 *163:26 8.0732e-05
24 *148:62 *173:27 5.34036e-05
25 *715:B *770:B 0.000159717
26 *724:B *148:62 0.000790389
27 *733:B *148:62 7.48542e-06
28 *752:A_N *148:10 0
29 *757:A *148:62 0.000145982
30 *762:A2 *770:B 0.000535339
31 *762:B1 *770:B 0.000376495
32 *762:B1 *148:22 0.000245556
33 *766:B *766:A 5.49995e-05
34 *766:B *148:24 0.000137639
35 *766:B *148:56 0.00021846
36 *767:C *767:B 0.000441448
37 *771:A1_N *148:62 0.000116155
38 *812:A *148:16 0.00035224
39 *818:CLK *766:A 5.22622e-05
40 *818:CLK *148:24 6.7531e-05
41 *818:CLK *148:56 3.64218e-05
42 *819:RESET_B *148:22 2.41406e-05
43 *829:RESET_B *148:10 0.000137018
44 *843:A *148:62 2.06112e-05
45 *19:12 *148:22 0.000257587
46 *32:10 *767:B 0.000325064
47 *53:12 *148:16 3.9745e-05
48 *55:14 *148:22 0.000425614
49 *55:14 *148:56 0.000385355
50 *81:51 *767:B 0.000626472
51 *83:16 *770:B 2.80538e-05
52 *89:18 *148:62 9.01618e-05
53 *89:42 *148:62 0.000432163
54 *96:39 *148:62 0.00132876
55 *97:14 *148:62 0.0010817
56 *99:14 *148:62 0.000568964
57 *110:58 *148:10 1.1594e-05
58 *110:58 *148:16 0.000336112
59 *110:58 *148:22 0
60 *111:18 *770:B 0.000134283
61 *116:20 *148:16 4.46186e-06
62 *119:21 *148:56 0.000246089
63 *132:56 *770:B 4.00349e-05
64 *132:56 *148:22 2.95495e-05
65 *133:10 *148:62 0.000484699
66 *135:30 *766:A 1.35553e-05
67 *135:66 *148:62 2.59355e-05
68 *141:100 *148:10 3.22234e-05
69 *145:18 *148:62 3.14113e-05
*RES
1 *829:Q *148:10 17.6214 
2 *148:10 *148:16 12.2857 
3 *148:16 *148:22 27.0357 
4 *148:22 *148:24 1.35714 
5 *148:24 *766:A 10.2464 
6 *148:24 *770:B 28.8486 
7 *148:22 *148:56 9.14286 
8 *148:56 *148:62 48.875 
9 *148:62 *768:B 9.3 
10 *148:16 *692:B 9.3 
11 *148:10 *767:B 23.7821 
*END

*D_NET *149 0.0224564
*CONN
*I *692:A I *D sky130_fd_sc_hd__and4_1
*I *770:A I *D sky130_fd_sc_hd__and4_1
*I *769:A1 I *D sky130_fd_sc_hd__o21ba_1
*I *768:A I *D sky130_fd_sc_hd__and4_1
*I *830:Q O *D sky130_fd_sc_hd__dfrtp_1
*CAP
1 *692:A 0.000795102
2 *770:A 4.81169e-05
3 *769:A1 0.00182341
4 *768:A 0.000762736
5 *830:Q 0
6 *149:24 0.00464676
7 *149:8 0.00231337
8 *149:6 0.000999732
9 *692:A *704:A1 0
10 *692:A *779:B 0.000180363
11 *692:A *159:39 0.000142998
12 *692:A *168:82 0.000260956
13 *692:A *172:16 3.25078e-05
14 *149:8 *168:82 1.00887e-05
15 *149:24 *734:A 0.000609027
16 *149:24 *737:A 0
17 *149:24 *155:14 0.00011217
18 *709:A1 *770:A 1.03037e-05
19 *724:B *768:A 0.000102922
20 *762:A2 *770:A 4.58194e-05
21 *768:D *768:A 4.5258e-05
22 *769:A2 *769:A1 5.18823e-05
23 *769:B1_N *769:A1 0.000803619
24 *780:B1 *149:24 0.000109425
25 *787:A *768:A 0.000531452
26 *815:RESET_B *769:A1 0.000335114
27 *818:RESET_B *768:A 0.000300875
28 *818:RESET_B *769:A1 0.000205863
29 *831:D *149:24 0
30 *836:RESET_B *692:A 2.09826e-05
31 *18:20 *149:24 0.000127802
32 *26:18 *692:A 1.69115e-05
33 *26:18 *149:8 0.000167832
34 *26:18 *149:24 9.15621e-06
35 *27:14 *149:24 0.000105594
36 *45:32 *768:A 3.61576e-05
37 *45:32 *149:24 0.000289641
38 *69:12 *692:A 0.000684792
39 *70:16 *770:A 0.000136676
40 *70:16 *149:24 0.000472665
41 *74:14 *692:A 0.000897101
42 *74:14 *149:8 0.000112606
43 *78:22 *768:A 3.88664e-05
44 *81:26 *692:A 7.80851e-06
45 *85:10 *149:8 0.000154583
46 *85:10 *149:24 0.000498995
47 *89:18 *768:A 0.00073396
48 *89:18 *769:A1 0.000197982
49 *92:38 *149:24 0.000723148
50 *103:30 *149:24 0
51 *110:130 *768:A 0.000877584
52 *114:26 *149:24 1.07374e-05
53 *122:10 *768:A 0.000332224
54 *129:18 *768:A 3.56212e-05
55 *135:66 *768:A 2.83514e-05
56 *145:55 *769:A1 0.000403753
57 *148:62 *768:A 5.49995e-05
*RES
1 *830:Q *149:6 13.8 
2 *149:6 *149:8 5.28571 
3 *149:8 *149:24 24.6879 
4 *149:24 *768:A 38.7732 
5 *149:24 *769:A1 43.2732 
6 *149:8 *770:A 15.1571 
7 *149:6 *692:A 34.8893 
*END

*D_NET *150 0.0165154
*CONN
*I *771:B2 I *D sky130_fd_sc_hd__o2bb2a_1
*I *692:D I *D sky130_fd_sc_hd__and4_1
*I *770:C I *D sky130_fd_sc_hd__and4_1
*I *831:Q O *D sky130_fd_sc_hd__dfrtp_1
*CAP
1 *771:B2 0.00102749
2 *692:D 0.000761862
3 *770:C 0.00040913
4 *831:Q 0.000108753
5 *150:10 0.001831
6 *150:6 0.00179625
7 *692:D *704:A1 0.00117804
8 *770:C *738:A3 0.000266603
9 *770:C *165:48 9.72789e-05
10 *771:B2 *774:A 0.000290286
11 *150:10 *166:22 0.000170256
12 *687:C *771:B2 0.000394152
13 *695:A *770:C 1.74852e-05
14 *701:A *770:C 8.14707e-05
15 *704:A3 *770:C 0.000150854
16 *709:A1 *770:C 1.21258e-05
17 *709:A2 *770:C 0
18 *739:A_N *771:B2 6.2058e-05
19 *762:B1 *692:D 3.03209e-05
20 *770:D *770:C 1.98839e-05
21 *771:A1_N *771:B2 3.31271e-05
22 *780:B1 *692:D 1.83266e-05
23 *812:A *692:D 0.000306048
24 *817:D *770:C 1.34343e-05
25 *818:CLK *692:D 9.87489e-05
26 *831:D *771:B2 9.60875e-05
27 *831:RESET_B *771:B2 0.000464471
28 *831:RESET_B *150:6 0.000135028
29 *26:18 *692:D 1.35486e-05
30 *27:14 *692:D 9.08437e-05
31 *27:14 *150:10 0.00174911
32 *69:12 *692:D 0.000306048
33 *70:16 *770:C 9.41642e-05
34 *77:22 *770:C 2.06178e-05
35 *84:10 *692:D 0.00032084
36 *84:10 *150:10 0.00126781
37 *94:16 *771:B2 0.000221634
38 *101:10 *771:B2 0.000150591
39 *103:30 *770:C 0.00058029
40 *123:16 *770:C 3.84173e-05
41 *127:12 *692:D 0.00131735
42 *135:66 *771:B2 1.50181e-05
43 *137:64 *150:10 0.000126289
44 *141:37 *771:B2 0.000151715
45 *143:90 *771:B2 0.000102453
46 *146:22 *771:B2 7.81028e-05
*RES
1 *831:Q *150:6 10.6571 
2 *150:6 *150:10 27.5446 
3 *150:10 *770:C 25.0771 
4 *150:10 *692:D 38.6304 
5 *150:6 *771:B2 39.05 
*END

*D_NET *151 0.018217
*CONN
*I *772:B1 I *D sky130_fd_sc_hd__a21oi_1
*I *692:C I *D sky130_fd_sc_hd__and4_1
*I *832:Q O *D sky130_fd_sc_hd__dfrtp_1
*CAP
1 *772:B1 0.000903023
2 *692:C 0.000450882
3 *832:Q 0.00042515
4 *151:18 0.00162863
5 *151:14 0.00179749
6 *151:10 0.00194792
7 *692:C *755:A 0.000746244
8 *692:C *168:26 0.000225948
9 *772:B1 *718:B1 0.000139491
10 *772:B1 *759:A 0.000181755
11 *151:14 *159:39 0.00031884
12 *151:18 *776:B 0.000110532
13 *151:18 *166:71 0.000147235
14 *702:C *772:B1 4.87953e-05
15 *713:B *772:B1 5.33005e-05
16 *713:C *772:B1 0.000114902
17 *718:A1 *772:B1 2.16401e-05
18 *718:A2 *772:B1 5.03772e-05
19 *759:C *151:14 0.000386741
20 *759:C *151:18 9.98998e-06
21 *785:A *151:18 2.30116e-06
22 *799:A *772:B1 0
23 *812:A *692:C 0.000262679
24 *813:RESET_B *151:14 0.000523856
25 *822:RESET_B *151:14 0.000112043
26 *824:D *151:14 1.02969e-05
27 *827:RESET_B *151:14 0.00155153
28 *829:RESET_B *151:18 0
29 *840:CLK *151:18 0.000120724
30 *43:38 *151:14 7.20556e-05
31 *69:12 *692:C 0.00150569
32 *69:12 *772:B1 9.71197e-05
33 *69:12 *151:18 0.000138017
34 *89:42 *151:14 0.00049189
35 *90:29 *151:14 0.00132027
36 *110:58 *692:C 2.61337e-05
37 *122:29 *151:10 0.000276576
38 *122:29 *151:14 0.00141978
39 *126:63 *151:14 0.000126149
40 *133:30 *151:18 0.000165653
41 *136:14 *151:14 1.177e-05
42 *136:32 *151:14 0.00014352
43 *146:53 *151:14 0.000130097
*RES
1 *832:Q *151:10 19.3893 
2 *151:10 *151:14 48.5804 
3 *151:14 *151:18 11.7589 
4 *151:18 *692:C 33.6571 
5 *151:18 *772:B1 25.2286 
*END

*D_NET *152 0.0234096
*CONN
*I *776:B I *D sky130_fd_sc_hd__and3_1
*I *779:B I *D sky130_fd_sc_hd__and4_1
*I *775:A1 I *D sky130_fd_sc_hd__a21oi_1
*I *688:B I *D sky130_fd_sc_hd__and4_2
*I *774:A I *D sky130_fd_sc_hd__xor2_1
*I *833:Q O *D sky130_fd_sc_hd__dfrtp_2
*CAP
1 *776:B 9.40902e-05
2 *779:B 0.00211796
3 *775:A1 2.30855e-05
4 *688:B 0.000232065
5 *774:A 0.000735396
6 *833:Q 0
7 *152:67 0.00321532
8 *152:50 0.00172539
9 *152:35 0.00211854
10 *152:6 0.00192283
11 *688:B *688:C 1.24368e-05
12 *688:B *154:27 0.000138015
13 *774:A *760:A1 4.41092e-05
14 *776:B *166:71 1.90936e-05
15 *779:B *704:A1 0.00025615
16 *779:B *779:A 0.000741106
17 *779:B *166:71 8.60225e-05
18 *152:35 *154:27 0.000161127
19 *152:50 *688:A 0.000607863
20 *152:50 *738:B1 0.000436643
21 *152:50 *153:50 2.84109e-05
22 *152:50 *154:27 4.23378e-05
23 *152:50 *159:23 0
24 *152:67 *153:50 0.000555582
25 *152:67 *159:23 1.08109e-05
26 *152:67 *159:39 2.79163e-05
27 *152:67 *166:71 2.24813e-05
28 *687:B *774:A 9.0043e-05
29 *687:C *774:A 0
30 *692:A *779:B 0.000180363
31 *713:A *152:67 1.1594e-05
32 *716:B1 *688:B 0.0001399
33 *722:B *774:A 0.000145473
34 *756:B *774:A 3.43988e-06
35 *771:B2 *774:A 0.000290286
36 *774:B *774:A 0
37 *775:A2 *152:67 5.49489e-05
38 *777:A *152:67 4.65258e-05
39 *779:D *779:B 4.5384e-05
40 *785:A *776:B 4.45524e-05
41 *810:A *152:35 0.000150262
42 *810:A *152:50 5.31122e-05
43 *823:D *774:A 0.000126509
44 *823:RESET_B *774:A 0.00022887
45 *829:RESET_B *152:67 4.68867e-05
46 *833:RESET_B *774:A 0.000130073
47 *836:RESET_B *779:B 0
48 *5:13 *779:B 0.00209922
49 *5:13 *152:67 0.000286289
50 *38:18 *152:50 0
51 *55:24 *152:50 0.000148196
52 *55:24 *152:67 0
53 *81:26 *779:B 0
54 *86:20 *776:B 5.52302e-05
55 *90:12 *152:67 0.000709187
56 *90:29 *152:50 3.38861e-06
57 *93:26 *152:35 0
58 *95:37 *152:35 0.000223607
59 *97:14 *774:A 0.000103267
60 *97:14 *152:35 0.000126706
61 *129:129 *152:67 0.000368578
62 *132:81 *152:67 0.000733765
63 *138:8 *152:50 0.000128909
64 *138:10 *152:35 4.75152e-06
65 *138:63 *152:50 5.28196e-05
66 *143:90 *774:A 0.000710559
67 *146:22 *774:A 5.22658e-05
68 *146:53 *152:35 9.09539e-05
69 *148:62 *774:A 0.000103267
70 *148:62 *152:35 0.00013512
71 *151:18 *776:B 0.000110532
*RES
1 *833:Q *152:6 13.8 
2 *152:6 *774:A 40.675 
3 *152:6 *152:35 12.7777 
4 *152:35 *688:B 16.8 
5 *152:35 *152:50 22.7679 
6 *152:50 *775:A1 9.72857 
7 *152:50 *152:67 33.5948 
8 *152:67 *779:B 35.5281 
9 *152:67 *776:B 19.2368 
*END

*D_NET *153 0.0171531
*CONN
*I *775:B1 I *D sky130_fd_sc_hd__a21oi_1
*I *688:A I *D sky130_fd_sc_hd__and4_2
*I *776:A I *D sky130_fd_sc_hd__and3_1
*I *779:A I *D sky130_fd_sc_hd__and4_1
*I *834:Q O *D sky130_fd_sc_hd__dfrtp_1
*CAP
1 *775:B1 0
2 *688:A 0.000671302
3 *776:A 4.93935e-05
4 *779:A 0.000548611
5 *834:Q 0
6 *153:50 0.00141647
7 *153:33 0.00200894
8 *153:4 0.00176299
9 *688:A *738:B1 1.58163e-05
10 *688:A *154:27 0.000115978
11 *779:A *693:A 0.00039899
12 *779:A *749:A 0.000397066
13 *779:A *161:46 0.000349714
14 *153:33 *693:A 0.000107648
15 *153:33 *749:A 1.38047e-05
16 *153:33 *163:26 7.97019e-05
17 *153:50 *738:B1 8.43535e-06
18 *153:50 *159:23 0.00156955
19 *749:B *779:A 2.96581e-05
20 *775:A2 *153:50 0.000141279
21 *779:B *779:A 0.000741106
22 *779:D *779:A 0.000269795
23 *819:D *779:A 7.41808e-05
24 *819:RESET_B *779:A 0
25 *829:RESET_B *153:33 0.000356427
26 *834:D *153:33 1.21258e-05
27 *834:RESET_B *153:33 9.1736e-05
28 *837:RESET_B *688:A 5.33005e-05
29 *837:RESET_B *153:50 0.00026816
30 *840:RESET_B *153:50 1.437e-05
31 *19:12 *779:A 0.000147362
32 *38:18 *688:A 0.000107789
33 *43:38 *688:A 4.22135e-06
34 *50:24 *688:A 0.000159946
35 *55:24 *688:A 0.000195856
36 *77:37 *776:A 0.000136682
37 *77:37 *153:50 0.000164334
38 *90:12 *153:33 0.000356427
39 *90:29 *688:A 0.00110905
40 *110:58 *153:33 9.73566e-05
41 *116:20 *153:33 1.68854e-05
42 *127:12 *779:A 0.000347559
43 *128:115 *153:33 0.000642197
44 *132:81 *153:50 0.000546228
45 *140:30 *776:A 6.57032e-05
46 *140:30 *153:50 8.55871e-05
47 *148:22 *779:A 0.000211491
48 *152:50 *688:A 0.000607863
49 *152:50 *153:50 2.84109e-05
50 *152:67 *153:50 0.000555582
*RES
1 *834:Q *153:4 9.3 
2 *153:4 *779:A 37.8179 
3 *153:4 *153:33 36.875 
4 *153:33 *776:A 10.6571 
5 *153:33 *153:50 34.4286 
6 *153:50 *688:A 38.9429 
7 *153:50 *775:B1 9.3 
*END

*D_NET *154 0.0197284
*CONN
*I *779:C I *D sky130_fd_sc_hd__and4_1
*I *688:C I *D sky130_fd_sc_hd__and4_2
*I *778:A I *D sky130_fd_sc_hd__xor2_1
*I *835:Q O *D sky130_fd_sc_hd__dfrtp_2
*CAP
1 *779:C 0.000343751
2 *688:C 2.70767e-05
3 *778:A 0.000352796
4 *835:Q 0.000775246
5 *154:50 0.00128425
6 *154:46 0.00215835
7 *154:27 0.00156838
8 *154:8 0.00145149
9 *154:46 *688:D 0.00039746
10 *154:46 *855:A 0.000462827
11 *154:50 *164:93 0.000739951
12 *688:A *154:27 0.000115978
13 *688:B *688:C 1.24368e-05
14 *688:B *154:27 0.000138015
15 *703:A *154:46 2.59355e-05
16 *716:B1 *154:27 9.71197e-05
17 *771:A1_N *154:46 0.000124005
18 *779:D *779:C 2.84026e-05
19 *819:D *779:C 9.84107e-05
20 *821:CLK *778:A 6.79143e-05
21 *822:RESET_B *778:A 3.09531e-05
22 *822:RESET_B *154:27 0.000130954
23 *827:CLK *154:8 4.92036e-05
24 *832:RESET_B *778:A 0
25 *835:RESET_B *154:8 0.000133023
26 *58:10 *154:50 0.0019625
27 *76:12 *154:50 0.00160379
28 *78:10 *154:50 0.000694738
29 *78:22 *154:46 0.0022195
30 *84:10 *154:46 6.91881e-05
31 *90:29 *154:27 1.19191e-05
32 *96:12 *154:8 6.64875e-05
33 *97:14 *154:46 0.000524386
34 *122:29 *778:A 4.65158e-06
35 *127:12 *779:C 3.18747e-05
36 *132:6 *154:46 0.000729222
37 *138:10 *154:27 4.49969e-05
38 *138:12 *778:A 9.36142e-05
39 *138:12 *154:27 2.97756e-05
40 *143:55 *154:46 6.2127e-05
41 *145:40 *154:46 0.000241964
42 *148:62 *154:46 0.000520249
43 *152:35 *154:27 0.000161127
44 *152:50 *154:27 4.23378e-05
*RES
1 *835:Q *154:8 22.9607 
2 *154:8 *778:A 20.3 
3 *154:8 *154:27 13.2321 
4 *154:27 *688:C 9.83571 
5 *154:27 *154:46 47.1786 
6 *154:46 *154:50 45.6071 
7 *154:50 *779:C 18.4429 
*END

*D_NET *155 0.0107804
*CONN
*I *780:B2 I *D sky130_fd_sc_hd__o2bb2a_1
*I *688:D I *D sky130_fd_sc_hd__and4_2
*I *836:Q O *D sky130_fd_sc_hd__dfrtp_1
*CAP
1 *780:B2 0
2 *688:D 0.000994089
3 *836:Q 0.00110576
4 *155:14 0.00209985
5 *688:D *711:A 3.074e-05
6 *688:D *158:20 0.000787925
7 *155:14 *704:A1 0.000115446
8 *155:14 *158:20 0.000613319
9 *704:A2 *155:14 9.50446e-05
10 *711:B *688:D 7.35637e-05
11 *728:A *688:D 0.000136682
12 *770:B *155:14 1.94135e-05
13 *780:B1 *155:14 0.000314721
14 *814:RESET_B *155:14 0.000300617
15 *815:RESET_B *688:D 0.000128225
16 *836:CLK *155:14 1.22751e-05
17 *846:A *155:14 0.000223954
18 *26:18 *155:14 6.05161e-06
19 *105:14 *688:D 0.00114145
20 *127:12 *155:14 6.79672e-06
21 *129:68 *155:14 0.000167329
22 *132:6 *688:D 0.00012899
23 *132:12 *688:D 0.000349797
24 *132:31 *688:D 0.000717495
25 *132:56 *688:D 9.25014e-06
26 *132:56 *155:14 0.000252551
27 *135:22 *155:14 0.000437264
28 *139:85 *155:14 2.13481e-06
29 *149:24 *155:14 0.00011217
30 *154:46 *688:D 0.00039746
*RES
1 *836:Q *155:14 38.8357 
2 *155:14 *688:D 43.05 
3 *155:14 *780:B2 13.8 
*END

*D_NET *156 0.0217323
*CONN
*I *693:A I *D sky130_fd_sc_hd__and4_2
*I *733:A I *D sky130_fd_sc_hd__nand2_1
*I *738:A1 I *D sky130_fd_sc_hd__a31o_1
*I *734:A I *D sky130_fd_sc_hd__or2_1
*I *818:Q O *D sky130_fd_sc_hd__dfrtp_2
*CAP
1 *693:A 0.000811392
2 *733:A 1.21645e-05
3 *738:A1 0.00257873
4 *734:A 0.00195797
5 *818:Q 0
6 *156:56 0.00155003
7 *156:18 0.00572378
8 *156:4 0.00191356
9 *693:A *749:A 0.000654207
10 *693:A *163:26 0.00132477
11 *734:A *694:C 0.000208149
12 *734:A *165:21 3.4846e-06
13 *734:A *165:48 9.45318e-06
14 *738:A1 *738:A3 9.59532e-06
15 *156:18 *163:26 1.90936e-05
16 *710:A2 *734:A 0
17 *733:B *733:A 5.49544e-05
18 *750:A *156:18 1.16107e-05
19 *771:A1_N *734:A 0.000390285
20 *771:A1_N *156:18 0.00114701
21 *779:A *693:A 0.00039899
22 *812:A *693:A 0.000187839
23 *813:RESET_B *738:A1 5.94089e-05
24 *818:RESET_B *156:18 5.49489e-05
25 *818:RESET_B *156:56 0.000245182
26 *824:RESET_B *693:A 0.000160036
27 *824:RESET_B *156:56 0.000694606
28 *834:RESET_B *693:A 0
29 *846:A *733:A 5.49544e-05
30 *24:16 *693:A 0
31 *38:18 *738:A1 0
32 *45:32 *734:A 0.000116105
33 *50:24 *738:A1 5.77477e-05
34 *83:16 *156:18 8.92205e-05
35 *92:38 *734:A 0
36 *92:38 *738:A1 0.000144359
37 *96:39 *738:A1 0.000133706
38 *110:43 *156:18 1.14338e-05
39 *116:59 *156:56 6.13757e-06
40 *118:22 *738:A1 0
41 *123:65 *156:18 0.000116101
42 *126:16 *693:A 0
43 *126:16 *156:56 0
44 *133:30 *693:A 0.000104626
45 *149:24 *734:A 0.000609027
46 *153:33 *693:A 0.000107648
*RES
1 *818:Q *156:4 9.3 
2 *156:4 *156:18 14.9979 
3 *156:18 *734:A 27.2777 
4 *156:18 *738:A1 25.448 
5 *156:4 *156:56 17.1429 
6 *156:56 *733:A 14.3357 
7 *156:56 *693:A 37.3536 
*END

*D_NET *157 0.0114451
*CONN
*I *689:A I *D sky130_fd_sc_hd__and2_1
*I *711:A I *D sky130_fd_sc_hd__and3_1
*I *710:B1 I *D sky130_fd_sc_hd__a21oi_1
*I *837:Q O *D sky130_fd_sc_hd__dfrtp_1
*CAP
1 *689:A 0.000289844
2 *711:A 0.000624851
3 *710:B1 0.00102286
4 *837:Q 4.36033e-05
5 *157:14 0.00226343
6 *157:8 0.000949167
7 *689:A *158:20 0.000466823
8 *710:B1 *174:10 7.90803e-05
9 *688:D *711:A 3.074e-05
10 *709:A1 *689:A 0.000322324
11 *709:A1 *157:14 0.000191738
12 *710:A1 *710:B1 1.83136e-05
13 *711:B *711:A 0.000132483
14 *711:C *711:A 5.33005e-05
15 *712:A *710:B1 0.000141729
16 *728:A *157:14 0.000974188
17 *774:B *711:A 1.19191e-05
18 *817:CLK *689:A 9.41642e-05
19 *831:CLK *710:B1 5.37174e-05
20 *831:RESET_B *710:B1 0.000302684
21 *831:RESET_B *157:14 0.000123095
22 *833:D *711:A 0.000745428
23 *837:RESET_B *157:8 5.33005e-05
24 *18:10 *711:A 8.54149e-05
25 *18:20 *711:A 0.000102026
26 *80:14 *157:14 0.000109112
27 *82:20 *711:A 7.39968e-05
28 *82:98 *157:14 1.17968e-05
29 *85:10 *710:B1 4.25523e-05
30 *89:42 *689:A 3.69047e-06
31 *99:14 *689:A 0.000143745
32 *101:10 *157:14 8.98433e-05
33 *110:16 *689:A 0.000329989
34 *110:16 *157:14 0.000121908
35 *113:26 *711:A 0.0002716
36 *129:68 *711:A 0.000143887
37 *131:16 *711:A 5.50052e-05
38 *132:12 *711:A 0.000166346
39 *137:8 *710:B1 1.98839e-05
40 *137:10 *710:B1 7.39756e-05
41 *141:37 *157:14 0.000611493
*RES
1 *837:Q *157:8 14.3357 
2 *157:8 *157:14 22.3929 
3 *157:14 *710:B1 33.1929 
4 *157:14 *711:A 36.5679 
5 *157:8 *689:A 22.8179 
*END

*D_NET *158 0.013042
*CONN
*I *714:A1 I *D sky130_fd_sc_hd__o21ba_1
*I *689:B I *D sky130_fd_sc_hd__and2_1
*I *838:Q O *D sky130_fd_sc_hd__dfrtp_1
*CAP
1 *714:A1 0.000554761
2 *689:B 2.37855e-05
3 *838:Q 0.00102644
4 *158:20 0.00137821
5 *158:14 0.0018261
6 *158:14 *165:10 6.52345e-05
7 *688:D *158:20 0.000787925
8 *689:A *158:20 0.000466823
9 *708:A *158:20 0.000301314
10 *728:A *158:20 9.01557e-05
11 *731:A2 *158:14 0.000177171
12 *745:B *158:14 0.000562976
13 *814:CLK *714:A1 0.000136682
14 *815:RESET_B *158:20 0.000374579
15 *817:CLK *158:20 5.96516e-05
16 *820:RESET_B *714:A1 9.6788e-05
17 *24:16 *714:A1 0.000555466
18 *52:12 *714:A1 0.000178425
19 *89:42 *714:A1 0.000335668
20 *89:42 *158:20 1.65169e-05
21 *92:38 *158:20 0.000119924
22 *97:36 *158:20 0.000385699
23 *99:24 *158:14 0.000926735
24 *104:22 *158:14 7.5779e-05
25 *126:16 *714:A1 5.41164e-05
26 *129:102 *714:A1 5.33005e-05
27 *129:109 *714:A1 0.000182605
28 *130:65 *158:14 0.000883546
29 *132:56 *158:20 0.000540134
30 *133:10 *714:A1 9.60939e-05
31 *133:10 *158:20 9.60875e-05
32 *136:32 *714:A1 0
33 *155:14 *158:20 0.000613319
*RES
1 *838:Q *158:14 43.8179 
2 *158:14 *158:20 29.5357 
3 *158:20 *689:B 9.72857 
4 *158:20 *714:A1 41.3179 
*END

*D_NET *159 0.0223738
*CONN
*I *690:A I *D sky130_fd_sc_hd__and4_2
*I *715:A I *D sky130_fd_sc_hd__and3_1
*I *716:B2 I *D sky130_fd_sc_hd__o2bb2a_1
*I *839:Q O *D sky130_fd_sc_hd__dfrtp_1
*CAP
1 *690:A 0.000786806
2 *715:A 0.00025289
3 *716:B2 0.0008487
4 *839:Q 0.000662455
5 *159:39 0.00134405
6 *159:23 0.00309147
7 *159:10 0.00272466
8 *159:23 *738:B1 0
9 *159:39 *166:71 5.26767e-05
10 *159:39 *172:26 0.00189371
11 *691:D *159:39 9.60939e-05
12 *692:A *159:39 0.000142998
13 *715:C *715:A 2.07517e-05
14 *715:C *159:39 0.000135028
15 *716:A1_N *716:B2 8.03994e-06
16 *716:B1 *716:B2 5.90898e-05
17 *717:B *690:A 4.11218e-05
18 *719:A *159:10 0.000309347
19 *719:A *159:23 0.000540192
20 *732:A *715:A 0.000139208
21 *762:B1 *159:39 2.09072e-05
22 *777:A *159:23 0.000266092
23 *810:A *716:B2 0.000101184
24 *810:A *159:10 0.000247151
25 *824:D *159:39 0.000118136
26 *830:RESET_B *715:A 0.000535366
27 *836:RESET_B *690:A 0.000585705
28 *836:RESET_B *159:39 0.000251833
29 *839:CLK *159:10 4.11862e-05
30 *839:D *159:10 6.05161e-06
31 *840:RESET_B *159:23 0.000616912
32 *5:13 *690:A 0
33 *5:13 *159:39 0
34 *20:12 *159:23 0.00076315
35 *29:14 *715:A 0.000427945
36 *38:18 *159:10 0.000160421
37 *38:18 *159:23 0.000236727
38 *43:38 *159:39 7.6644e-05
39 *53:12 *159:39 6.12434e-05
40 *56:18 *690:A 4.28365e-05
41 *68:10 *716:B2 0.000173463
42 *74:14 *159:39 0.000144719
43 *91:22 *715:A 0.000265205
44 *91:22 *159:39 0.00153853
45 *93:26 *159:23 0.000239864
46 *123:65 *690:A 0
47 *128:43 *716:B2 1.21258e-05
48 *128:54 *716:B2 1.58163e-05
49 *141:14 *159:23 8.24593e-05
50 *145:91 *715:A 0.000225982
51 *147:16 *159:39 3.97677e-05
52 *151:14 *159:39 0.00031884
53 *152:50 *159:23 0
54 *152:67 *159:23 1.08109e-05
55 *152:67 *159:39 2.79163e-05
56 *153:50 *159:23 0.00156955
*RES
1 *839:Q *159:10 24.5679 
2 *159:10 *716:B2 23.7821 
3 *159:10 *159:23 40.7225 
4 *159:23 *159:39 43.7587 
5 *159:39 *715:A 18.05 
6 *159:23 *690:A 19.7111 
*END

*D_NET *160 0.00438671
*CONN
*I *718:B1 I *D sky130_fd_sc_hd__a21o_1
*I *690:B I *D sky130_fd_sc_hd__and4_2
*I *840:Q O *D sky130_fd_sc_hd__dfrtp_1
*CAP
1 *718:B1 0.000259551
2 *690:B 0.000490858
3 *840:Q 4.36033e-05
4 *160:8 0.000794012
5 *690:C *690:B 0.000157561
6 *690:C *160:8 5.33005e-05
7 *706:A *690:B 5.33005e-05
8 *713:A *718:B1 0.0001456
9 *713:B *718:B1 9.91086e-05
10 *713:C *718:B1 0.000104781
11 *717:B *690:B 1.39726e-05
12 *772:B1 *718:B1 0.000139491
13 *773:B *690:B 0.000218723
14 *825:CLK *718:B1 2.33777e-05
15 *840:RESET_B *690:B 9.91086e-05
16 *840:RESET_B *718:B1 0.000101125
17 *77:37 *690:B 3.55279e-05
18 *77:58 *690:B 2.24079e-05
19 *82:141 *690:B 4.58194e-05
20 *82:154 *690:B 2.59355e-05
21 *86:20 *690:B 0.0010444
22 *93:26 *718:B1 0.000110238
23 *132:81 *690:B 5.24274e-05
24 *132:81 *718:B1 1.17968e-05
25 *134:6 *690:B 2.68274e-05
26 *140:30 *690:B 0.00013921
27 *140:71 *718:B1 7.46421e-05
*RES
1 *840:Q *160:8 14.3357 
2 *160:8 *690:B 27.4964 
3 *160:8 *718:B1 21.175 
*END

*D_NET *161 0.0157432
*CONN
*I *696:A I *D sky130_fd_sc_hd__and4_1
*I *721:A I *D sky130_fd_sc_hd__xnor2_1
*I *704:A1 I *D sky130_fd_sc_hd__a31o_1
*I *702:D I *D sky130_fd_sc_hd__nand4b_2
*I *706:B I *D sky130_fd_sc_hd__and4_1
*I *841:Q O *D sky130_fd_sc_hd__dfrtp_2
*CAP
1 *696:A 0.000276244
2 *721:A 2.75619e-05
3 *704:A1 0.000924145
4 *702:D 0
5 *706:B 0.000226528
6 *841:Q 7.00744e-05
7 *161:67 0.000469952
8 *161:46 0.00320143
9 *161:21 0.00230225
10 *161:8 0.000487716
11 *696:A *165:77 0.000405727
12 *696:A *170:16 0.000405727
13 *704:A1 *168:82 8.55871e-05
14 *161:21 *168:16 0.000147332
15 *161:21 *168:52 0.000116308
16 *161:46 *749:A 5.47722e-05
17 *161:46 *168:16 0.000125717
18 *690:C *161:8 0.000175892
19 *690:D *161:8 8.25843e-06
20 *692:A *704:A1 0
21 *692:D *704:A1 0.00117804
22 *696:C *696:A 0
23 *700:B *161:67 2.69106e-05
24 *704:A2 *704:A1 0.000272596
25 *707:A *161:8 6.57032e-05
26 *749:B *161:46 4.88909e-05
27 *779:A *161:46 0.000349714
28 *779:B *704:A1 0.00025615
29 *816:RESET_B *161:21 8.89289e-05
30 *818:CLK *704:A1 3.2033e-05
31 *825:D *161:46 3.4061e-05
32 *825:RESET_B *161:46 0.00195073
33 *829:CLK *696:A 5.85455e-05
34 *829:CLK *161:67 4.7089e-05
35 *836:RESET_B *704:A1 4.64488e-06
36 *5:13 *706:B 0.000216106
37 *5:13 *161:21 6.01774e-05
38 *26:18 *704:A1 0.000421376
39 *77:58 *706:B 0.000175892
40 *81:26 *161:67 0
41 *81:51 *721:A 2.85321e-05
42 *92:38 *161:67 1.16198e-05
43 *108:14 *161:46 2.0954e-05
44 *109:14 *161:46 0.000357003
45 *111:18 *696:A 0
46 *121:12 *161:21 0
47 *121:12 *161:46 0
48 *127:12 *704:A1 6.91755e-05
49 *127:12 *161:67 4.22378e-05
50 *135:30 *704:A1 2.12647e-05
51 *141:92 *161:21 3.19202e-05
52 *142:168 *706:B 0.000212804
53 *142:168 *161:21 3.34366e-05
54 *155:14 *704:A1 0.000115446
*RES
1 *841:Q *161:8 15.5679 
2 *161:8 *706:B 18.425 
3 *161:8 *161:21 5.58929 
4 *161:21 *702:D 13.8 
5 *161:21 *161:46 41.1607 
6 *161:46 *704:A1 45.5143 
7 *161:46 *161:67 3.46429 
8 *161:67 *721:A 14.3357 
9 *161:67 *696:A 21.9964 
*END

*D_NET *162 0.0279493
*CONN
*I *738:A3 I *D sky130_fd_sc_hd__a31o_1
*I *737:A I *D sky130_fd_sc_hd__xnor2_1
*I *693:C I *D sky130_fd_sc_hd__and4_2
*I *819:Q O *D sky130_fd_sc_hd__dfrtp_2
*CAP
1 *738:A3 0.00282212
2 *737:A 0.00318494
3 *693:C 0.000385243
4 *819:Q 0.000777488
5 *162:29 0.00730515
6 *162:12 0.00246082
7 *693:C *165:48 4.73953e-05
8 *693:C *165:69 3.2869e-05
9 *737:A *174:10 0.000114258
10 *700:B *737:A 0.00109016
11 *700:B *162:29 0.00152131
12 *701:A *737:A 0.000732268
13 *717:A *738:A3 0
14 *717:B *738:A3 0.00110116
15 *733:B *738:A3 0.000145929
16 *738:A1 *738:A3 9.59532e-06
17 *760:A3 *737:A 3.30056e-05
18 *770:C *738:A3 0.000266603
19 *819:RESET_B *693:C 0.000164985
20 *819:RESET_B *162:12 0.000265033
21 *843:A *737:A 0
22 *5:13 *693:C 0.000100609
23 *5:13 *162:12 9.54448e-05
24 *45:32 *737:A 0
25 *53:12 *162:12 0.000292847
26 *56:18 *738:A3 0.000214409
27 *77:86 *693:C 2.76049e-05
28 *80:24 *737:A 4.4401e-05
29 *83:16 *738:A3 0.00195218
30 *92:38 *737:A 0
31 *92:38 *162:29 0
32 *96:39 *737:A 0.000108889
33 *98:16 *737:A 0.000123605
34 *103:30 *738:A3 0.000695931
35 *109:14 *162:12 0.000294569
36 *114:26 *737:A 0
37 *117:16 *737:A 2.28544e-05
38 *118:22 *738:A3 0.000480516
39 *123:16 *738:A3 0.000237279
40 *123:65 *738:A3 0
41 *134:31 *162:12 0.000786621
42 *144:18 *738:A3 1.11775e-05
43 *149:24 *737:A 0
*RES
1 *819:Q *162:12 23.0864 
2 *162:12 *693:C 18.8976 
3 *162:12 *162:29 6.75953 
4 *162:29 *737:A 28.0075 
5 *162:29 *738:A3 41.3048 
*END

*D_NET *163 0.0136582
*CONN
*I *738:B1 I *D sky130_fd_sc_hd__a31o_1
*I *693:D I *D sky130_fd_sc_hd__and4_2
*I *820:Q O *D sky130_fd_sc_hd__dfrtp_1
*CAP
1 *738:B1 0.00113818
2 *693:D 0
3 *820:Q 0
4 *163:26 0.00152403
5 *163:20 0.00206575
6 *163:4 0.0016799
7 *163:20 *854:A 0.000108574
8 *163:20 *166:55 0.000144001
9 *163:26 *749:A 5.48186e-05
10 *688:A *738:B1 1.58163e-05
11 *693:A *163:26 0.00132477
12 *717:B *738:B1 6.52406e-05
13 *723:A *738:B1 3.77981e-05
14 *733:B *163:26 0.00040955
15 *750:A *163:26 6.73386e-05
16 *777:A *738:B1 0.000125484
17 *820:RESET_B *163:20 0.000142618
18 *837:RESET_B *738:B1 4.12921e-05
19 *837:RESET_B *163:20 0.000126229
20 *846:A *163:26 7.40526e-05
21 *24:16 *163:20 2.15591e-05
22 *53:12 *163:26 0.000107612
23 *92:14 *738:B1 0.000138876
24 *99:14 *163:26 0.0010708
25 *102:12 *738:B1 0.000556468
26 *110:43 *163:26 0.000244706
27 *110:58 *163:26 0.000362226
28 *113:26 *163:26 1.95625e-05
29 *116:20 *163:26 0.000377878
30 *129:102 *163:20 0.000303368
31 *141:14 *738:B1 9.96224e-05
32 *141:71 *738:B1 0.000217447
33 *142:130 *163:20 8.18233e-06
34 *142:136 *163:20 0.000219711
35 *142:168 *163:20 0.000140088
36 *148:62 *163:26 8.0732e-05
37 *152:50 *738:B1 0.000436643
38 *153:33 *163:26 7.97019e-05
39 *153:50 *738:B1 8.43535e-06
40 *156:18 *163:26 1.90936e-05
41 *159:23 *738:B1 0
*RES
1 *820:Q *163:4 9.3 
2 *163:4 *163:20 25.8929 
3 *163:20 *163:26 43.4107 
4 *163:26 *693:D 9.3 
5 *163:4 *738:B1 41.2107 
*END

*D_NET *164 0.0270047
*CONN
*I *749:A I *D sky130_fd_sc_hd__and3_1
*I *744:B I *D sky130_fd_sc_hd__and3_2
*I *742:A I *D sky130_fd_sc_hd__nor2_1
*I *694:B I *D sky130_fd_sc_hd__and4_1
*I *741:A I *D sky130_fd_sc_hd__and2_1
*I *821:Q O *D sky130_fd_sc_hd__dfrtp_2
*CAP
1 *749:A 0.00208035
2 *744:B 0
3 *742:A 0.000444249
4 *694:B 0
5 *741:A 2.16337e-05
6 *821:Q 0.000353962
7 *164:93 0.00285925
8 *164:85 0.00188059
9 *164:51 0.000472002
10 *164:47 0.00124237
11 *164:34 0.000354129
12 *164:32 0.00295517
13 *164:12 0.00308957
14 *742:A *694:C 1.24368e-05
15 *749:A *744:A 3.68113e-05
16 *749:A *168:26 3.69697e-05
17 *164:32 *694:D 2.00751e-05
18 *164:32 *165:10 0.000946775
19 *164:34 *694:D 0.000410634
20 *164:34 *165:10 0
21 *164:47 *694:D 0.000117189
22 *164:47 *165:10 0
23 *164:85 *694:C 5.41794e-05
24 *164:85 *165:10 0
25 *693:A *749:A 0.000654207
26 *695:D *164:85 9.41642e-05
27 *698:A2 *164:47 9.01724e-06
28 *698:A2 *164:85 4.22135e-06
29 *705:B1 *741:A 5.20751e-05
30 *719:A *164:32 0.000500543
31 *741:B *164:34 0
32 *742:B *742:A 9.41642e-05
33 *749:B *164:93 0
34 *767:A *749:A 0
35 *767:C *749:A 4.01319e-05
36 *779:A *749:A 0.000397066
37 *789:A *742:A 4.99858e-05
38 *812:A *749:A 0
39 *815:D *741:A 9.83442e-05
40 *822:RESET_B *164:32 0.000233672
41 *825:RESET_B *749:A 5.49544e-05
42 *834:D *749:A 2.89114e-05
43 *834:RESET_B *749:A 2.24724e-05
44 *838:CLK *164:32 8.49612e-06
45 *838:RESET_B *164:32 9.1246e-05
46 *28:12 *164:85 0.000832317
47 *31:12 *164:85 0.00118295
48 *31:20 *164:85 8.33512e-05
49 *47:12 *742:A 0.000228922
50 *47:12 *164:85 0.00047398
51 *75:8 *749:A 6.3572e-06
52 *75:25 *164:93 0.000569088
53 *76:12 *164:93 3.34295e-05
54 *83:26 *164:85 9.60875e-05
55 *94:16 *164:32 0.00051226
56 *95:8 *164:12 0.000243104
57 *106:16 *164:85 0.00012401
58 *106:26 *164:85 0.000335541
59 *108:14 *749:A 9.25014e-06
60 *142:45 *164:47 1.32921e-05
61 *142:45 *164:85 4.17661e-06
62 *143:34 *164:85 0.000527647
63 *145:16 *164:85 0.000196269
64 *145:91 *164:85 0.000435505
65 *145:91 *164:93 0.000411825
66 *153:33 *749:A 1.38047e-05
67 *154:50 *164:93 0.000739951
68 *161:46 *749:A 5.47722e-05
69 *163:26 *749:A 5.48186e-05
*RES
1 *821:Q *164:12 25.0321 
2 *164:12 *164:32 48.625 
3 *164:32 *164:34 5.28571 
4 *164:34 *741:A 14.7464 
5 *164:34 *164:47 2.63393 
6 *164:47 *164:51 5.08036 
7 *164:51 *694:B 9.3 
8 *164:51 *742:A 15.6214 
9 *164:47 *164:85 46.8661 
10 *164:85 *164:93 30.8571 
11 *164:93 *744:B 9.3 
12 *164:93 *749:A 45.7286 
*END

*D_NET *165 0.0248046
*CONN
*I *748:A I *D sky130_fd_sc_hd__and3_1
*I *744:A I *D sky130_fd_sc_hd__and3_2
*I *745:A I *D sky130_fd_sc_hd__nor2_1
*I *694:A I *D sky130_fd_sc_hd__and4_1
*I *822:Q O *D sky130_fd_sc_hd__dfrtp_2
*CAP
1 *748:A 0.000173756
2 *744:A 4.85635e-05
3 *745:A 0
4 *694:A 5.40719e-05
5 *822:Q 0.000753801
6 *165:77 0.00287375
7 *165:69 0.00330227
8 *165:48 0.00347676
9 *165:21 0.00300902
10 *165:10 0.00099098
11 *748:A *748:B 4.74514e-05
12 *748:A *748:C 0.000180023
13 *165:21 *694:C 0
14 *165:48 *694:C 0.000198199
15 *165:69 *170:16 0
16 *165:77 *851:A 0.0010635
17 *165:77 *170:16 0.000302496
18 *693:C *165:48 4.73953e-05
19 *693:C *165:69 3.2869e-05
20 *696:A *165:77 0.000405727
21 *696:D *165:69 0.000516618
22 *700:B *165:48 0.0001492
23 *701:A *165:48 0.000138357
24 *704:A3 *165:48 0.000828681
25 *731:A2 *165:10 0.000132463
26 *734:A *165:21 3.4846e-06
27 *734:A *165:48 9.45318e-06
28 *741:B *165:10 0.000240572
29 *745:B *165:10 0.000276735
30 *745:B *165:21 0.000331603
31 *745:B *165:48 1.00887e-05
32 *749:A *744:A 3.68113e-05
33 *753:A *165:77 0.000241465
34 *770:C *165:48 9.72789e-05
35 *799:A *748:A 0.000185403
36 *817:D *165:48 0.000113927
37 *819:RESET_B *165:48 1.462e-05
38 *822:CLK *165:10 4.87854e-05
39 *822:D *165:10 2.89016e-05
40 *822:RESET_B *165:10 6.26774e-05
41 *831:D *165:21 3.20253e-05
42 *838:RESET_B *165:10 0.000599038
43 *5:13 *165:48 1.89621e-05
44 *47:12 *694:A 3.42426e-05
45 *75:8 *744:A 9.96463e-05
46 *77:14 *165:48 9.1157e-05
47 *77:22 *165:48 0.000141163
48 *77:86 *165:69 0.000301233
49 *99:24 *165:48 0.00126121
50 *103:30 *165:48 3.42201e-05
51 *104:22 *165:10 8.00806e-05
52 *108:14 *748:A 0.000445853
53 *111:18 *165:48 3.50838e-05
54 *111:18 *165:77 0.000181796
55 *141:92 *165:77 9.15842e-06
56 *158:14 *165:10 6.52345e-05
57 *164:32 *165:10 0.000946775
58 *164:34 *165:10 0
59 *164:47 *165:10 0
60 *164:85 *165:10 0
*RES
1 *822:Q *165:10 34.675 
2 *165:10 *694:A 14.7464 
3 *165:10 *165:21 4.375 
4 *165:21 *745:A 13.8 
5 *165:21 *165:48 39.4534 
6 *165:48 *744:A 15.1571 
7 *165:48 *165:69 17.9464 
8 *165:69 *165:77 47.3214 
9 *165:77 *748:A 15.9071 
*END

*D_NET *166 0.0306371
*CONN
*I *694:D I *D sky130_fd_sc_hd__and4_1
*I *747:A I *D sky130_fd_sc_hd__xor2_1
*I *748:C I *D sky130_fd_sc_hd__and3_1
*I *751:A1 I *D sky130_fd_sc_hd__a21o_1
*I *823:Q O *D sky130_fd_sc_hd__dfrtp_4
*CAP
1 *694:D 0.000700683
2 *747:A 0.00198624
3 *748:C 0.000740539
4 *751:A1 3.92359e-05
5 *823:Q 1.78626e-05
6 *166:71 0.00231401
7 *166:55 0.00293235
8 *166:22 0.00256862
9 *166:14 0.00388113
10 *166:8 0.00144293
11 *166:22 *174:10 0.000555909
12 *712:A *694:D 0.00060108
13 *724:A *747:A 4.9533e-05
14 *729:B *166:55 0.000135028
15 *731:A2 *694:D 0
16 *731:A2 *166:8 9.83388e-05
17 *731:A2 *166:14 0
18 *731:A2 *166:22 0.000269484
19 *748:A *748:C 0.000180023
20 *750:A *166:55 5.49544e-05
21 *751:A2 *751:A1 5.52238e-05
22 *758:B *747:A 0
23 *759:C *166:71 0.000496792
24 *760:A3 *694:D 1.8038e-05
25 *760:A3 *747:A 6.89689e-06
26 *767:A *166:71 0.000160591
27 *776:B *166:71 1.90936e-05
28 *779:B *166:71 8.60225e-05
29 *785:A *166:71 0.000455357
30 *794:A *747:A 0.000576618
31 *799:A *748:C 0.000702727
32 *820:CLK *166:55 8.29486e-05
33 *823:CLK *166:22 0.00076773
34 *823:D *747:A 0.00022191
35 *824:D *166:71 0.00058836
36 *829:RESET_B *166:71 0.000451626
37 *836:RESET_B *166:71 6.59103e-06
38 *837:RESET_B *166:55 0.000205535
39 *840:CLK *166:71 6.35864e-05
40 *18:10 *166:22 0
41 *26:18 *166:55 0.000125724
42 *33:16 *694:D 0
43 *34:14 *166:55 2.89016e-05
44 *43:38 *166:71 0.000360842
45 *50:24 *166:71 0.000196269
46 *55:24 *166:71 0.000776941
47 *70:16 *166:22 9.42787e-05
48 *70:16 *166:55 5.49257e-05
49 *80:24 *166:8 9.83388e-05
50 *80:24 *166:22 0
51 *81:51 *166:71 2.57405e-05
52 *84:10 *166:22 0.000446644
53 *84:10 *166:55 0.000238769
54 *85:10 *166:22 0
55 *95:37 *166:22 1.11775e-05
56 *97:36 *166:55 9.47166e-05
57 *98:16 *166:55 0.000587962
58 *106:58 *694:D 0
59 *106:58 *747:A 0.00026111
60 *107:18 *694:D 0
61 *108:14 *166:71 0
62 *110:98 *166:71 7.69776e-06
63 *110:126 *166:55 2.12005e-05
64 *110:143 *747:A 3.90768e-05
65 *116:59 *166:55 4.12164e-05
66 *117:16 *166:22 0.000373435
67 *133:30 *166:71 0.000167375
68 *137:64 *166:22 0.000271194
69 *137:66 *166:22 0.000191767
70 *137:70 *166:22 0.000163396
71 *141:100 *748:C 0.000332155
72 *141:100 *166:71 9.86486e-06
73 *142:45 *694:D 9.11048e-06
74 *142:75 *747:A 0.000147367
75 *142:75 *166:14 0.000164619
76 *142:168 *166:55 0.000677149
77 *150:10 *166:22 0.000170256
78 *151:18 *166:71 0.000147235
79 *152:67 *166:71 2.24813e-05
80 *159:39 *166:71 5.26767e-05
81 *163:20 *166:55 0.000144001
82 *164:32 *694:D 2.00751e-05
83 *164:34 *694:D 0.000410634
84 *164:47 *694:D 0.000117189
*RES
1 *823:Q *166:8 14.7464 
2 *166:8 *166:14 5.7102 
3 *166:14 *166:22 35.3118 
4 *166:22 *751:A1 14.3357 
5 *166:22 *166:55 43.7679 
6 *166:55 *166:71 49.3338 
7 *166:71 *748:C 24.8893 
8 *166:14 *747:A 26.4726 
9 *166:8 *694:D 29.7107 
*END

*D_NET *167 0.020835
*CONN
*I *748:B I *D sky130_fd_sc_hd__and3_1
*I *751:B1 I *D sky130_fd_sc_hd__a21o_1
*I *694:C I *D sky130_fd_sc_hd__and4_1
*I *824:Q O *D sky130_fd_sc_hd__dfrtp_1
*CAP
1 *748:B 0.00173893
2 *751:B1 5.26941e-05
3 *694:C 0.000979263
4 *824:Q 0
5 *167:58 0.00249547
6 *167:16 0.00287933
7 *167:4 0.00260392
8 *701:A *167:16 0.00014318
9 *704:A3 *694:C 0.000125724
10 *734:A *694:C 0.000208149
11 *735:B *167:16 0.00038233
12 *742:A *694:C 1.24368e-05
13 *748:A *748:B 4.74514e-05
14 *751:A2 *694:C 0.000303092
15 *751:A2 *751:B1 0.000164334
16 *753:A *748:B 0.000148198
17 *767:C *167:58 0
18 *770:B *167:16 0.000134283
19 *796:A *167:16 0.000335215
20 *812:A *167:58 0.000170754
21 *817:RESET_B *694:C 0
22 *831:D *694:C 5.88062e-05
23 *837:CLK *167:16 0.000195547
24 *47:12 *694:C 0.000111112
25 *53:12 *167:58 1.37292e-05
26 *75:56 *167:16 0.000625857
27 *81:26 *167:16 0.000502869
28 *85:10 *167:16 7.30957e-06
29 *86:20 *167:16 0.000686881
30 *86:20 *167:58 4.43256e-05
31 *97:36 *167:16 0.000102184
32 *108:14 *748:B 0.00226828
33 *108:14 *167:58 0
34 *109:14 *167:58 0.000624216
35 *111:18 *167:16 0.000957986
36 *123:16 *167:16 4.04359e-05
37 *133:30 *167:58 0.000193708
38 *141:100 *748:B 0.000209583
39 *142:45 *694:C 0.00036845
40 *144:87 *694:C 0.000301438
41 *144:87 *751:B1 0.000175892
42 *145:40 *694:C 0.000169233
43 *148:10 *167:58 0
44 *148:16 *167:58 0
45 *164:85 *694:C 5.41794e-05
46 *165:21 *694:C 0
47 *165:48 *694:C 0.000198199
*RES
1 *824:Q *167:4 9.3 
2 *167:4 *167:16 47.8393 
3 *167:16 *694:C 40.05 
4 *167:16 *751:B1 11.0679 
5 *167:4 *167:58 24.6429 
6 *167:58 *748:B 35.3 
*END

*D_NET *168 0.0300228
*CONN
*I *691:B I *D sky130_fd_sc_hd__and4_1
*I *754:A I *D sky130_fd_sc_hd__nor2_1
*I *760:A2 I *D sky130_fd_sc_hd__a31o_1
*I *759:B I *D sky130_fd_sc_hd__and3_1
*I *755:A I *D sky130_fd_sc_hd__nand2_1
*I *825:Q O *D sky130_fd_sc_hd__dfrtp_4
*CAP
1 *691:B 5.10904e-05
2 *754:A 0
3 *760:A2 0.00038327
4 *759:B 0
5 *755:A 0.000850638
6 *825:Q 0.000591407
7 *168:84 0.00148119
8 *168:82 0.00277898
9 *168:60 0.00282186
10 *168:52 0.00150259
11 *168:26 0.00215143
12 *168:16 0.0022029
13 *691:B *172:26 0.000135028
14 *760:A2 *760:A1 5.65955e-05
15 *168:82 *172:16 5.58941e-05
16 *690:D *168:26 0.000175892
17 *691:D *691:B 5.33005e-05
18 *692:A *168:82 0.000260956
19 *692:C *755:A 0.000746244
20 *692:C *168:26 0.000225948
21 *704:A1 *168:82 8.55871e-05
22 *714:B1_N *168:60 0.000180151
23 *715:C *168:82 0.000150852
24 *749:A *168:26 3.69697e-05
25 *754:B *168:60 1.32693e-05
26 *754:B *168:82 2.36413e-05
27 *760:B1 *760:A2 2.36643e-05
28 *796:A *168:82 1.59373e-05
29 *816:CLK *168:26 0.000148303
30 *816:D *168:16 6.66848e-05
31 *816:D *168:26 5.03772e-05
32 *819:RESET_B *755:A 0.000178026
33 *825:D *168:16 0.000175274
34 *830:CLK *168:82 4.97967e-05
35 *830:D *168:60 2.22618e-05
36 *830:D *168:82 0.000173787
37 *830:RESET_B *168:82 0.000131421
38 *834:CLK *168:26 0.000129331
39 *5:13 *168:52 0.000592833
40 *5:13 *168:60 0.000145119
41 *19:12 *755:A 0
42 *26:18 *168:82 7.83414e-05
43 *29:14 *168:60 0.000980189
44 *29:14 *168:82 0.000180577
45 *29:18 *168:82 0.000123865
46 *32:10 *755:A 9.93203e-05
47 *33:18 *168:84 0.00358499
48 *53:12 *168:82 0.000512894
49 *69:12 *755:A 2.14757e-05
50 *81:51 *755:A 0.000272288
51 *83:26 *168:84 0.00237174
52 *89:42 *168:60 7.09928e-05
53 *90:12 *168:60 0.000301094
54 *110:58 *755:A 0.000119849
55 *114:26 *755:A 4.19624e-06
56 *121:12 *168:52 4.98968e-05
57 *123:65 *168:60 0.000294154
58 *128:105 *168:26 2.22618e-05
59 *128:105 *168:52 0.000708432
60 *128:105 *168:60 0.000146841
61 *128:115 *168:26 1.13883e-05
62 *131:20 *168:84 0
63 *133:30 *168:26 0.000432474
64 *133:30 *168:60 0.000135028
65 *141:92 *168:16 0.000136744
66 *142:58 *168:84 0
67 *147:14 *691:B 2.59355e-05
68 *147:16 *691:B 1.98839e-05
69 *148:22 *755:A 0
70 *149:8 *168:82 1.00887e-05
71 *161:21 *168:16 0.000147332
72 *161:21 *168:52 0.000116308
73 *161:46 *168:16 0.000125717
*RES
1 *825:Q *168:16 28.1929 
2 *168:16 *168:26 25.8929 
3 *168:26 *755:A 34.0143 
4 *168:26 *759:B 9.3 
5 *168:16 *168:52 15.25 
6 *168:52 *168:60 27.9464 
7 *168:60 *168:82 42.875 
8 *168:82 *168:84 49.3036 
9 *168:84 *760:A2 20.4964 
10 *168:60 *754:A 9.3 
11 *168:52 *691:B 15.1571 
*END

*D_NET *169 0.0242018
*CONN
*I *759:A I *D sky130_fd_sc_hd__and3_1
*I *691:A I *D sky130_fd_sc_hd__and4_1
*I *760:A1 I *D sky130_fd_sc_hd__a31o_1
*I *758:A I *D sky130_fd_sc_hd__xnor2_1
*I *826:Q O *D sky130_fd_sc_hd__dfrtp_2
*CAP
1 *759:A 0.00178217
2 *691:A 0
3 *760:A1 0.00126812
4 *758:A 1.58203e-05
5 *826:Q 0
6 *169:71 0.00272918
7 *169:54 0.00171736
8 *169:16 0.0027431
9 *169:6 0.0022295
10 *760:A1 *175:12 1.17819e-05
11 *169:16 *175:12 0.00034725
12 *169:54 *172:26 3.51247e-05
13 *169:71 *852:A 5.83233e-05
14 *169:71 *172:26 0.00019635
15 seg[1] *169:71 2.22043e-05
16 *687:B *760:A1 5.52084e-05
17 *687:C *760:A1 0.000120451
18 *690:D *169:71 0.000250915
19 *702:C *759:A 4.87953e-05
20 *711:B *760:A1 0.000131929
21 *711:C *760:A1 0.000214145
22 *713:C *759:A 0.000521788
23 *716:A1_N *169:54 0.000114602
24 *717:A *169:71 0.000292437
25 *722:A *169:16 0.000202704
26 *723:A *169:16 0.000843367
27 *723:A *169:54 0.000535283
28 *756:B *760:A1 9.54798e-06
29 *757:A *760:A1 0.000346261
30 *759:C *759:A 0.000197215
31 *760:A2 *760:A1 5.65955e-05
32 *760:B1 *760:A1 0.000656939
33 *772:A1 *169:71 0
34 *772:B1 *759:A 0.000181755
35 *774:A *760:A1 4.41092e-05
36 *778:B *169:16 0.000273986
37 *787:A *758:A 9.83442e-05
38 *787:A *760:A1 8.97632e-06
39 *787:A *169:16 0.00022093
40 *799:A *759:A 0.000183027
41 *806:A *169:16 8.95645e-05
42 *821:RESET_B *169:16 0.00142699
43 *821:RESET_B *169:54 0.00121514
44 *835:D *169:16 9.75679e-05
45 *39:10 *169:71 0
46 *40:14 *169:16 2.59355e-05
47 *56:18 *759:A 3.79877e-06
48 *56:18 *169:71 0
49 *69:12 *759:A 7.65689e-05
50 *73:16 *169:54 0.000708457
51 *89:18 *760:A1 0.00016004
52 *117:16 *760:A1 0.000139146
53 *130:78 *169:54 0.000419613
54 *130:91 *169:54 0.00021262
55 *131:16 *760:A1 2.60673e-05
56 *141:79 *169:54 0.000834717
*RES
1 *826:Q *169:6 13.8 
2 *169:6 *169:16 42.3036 
3 *169:16 *758:A 10.2464 
4 *169:16 *760:A1 44.675 
5 *169:6 *169:54 34.25 
6 *169:54 *691:A 9.3 
7 *169:54 *169:71 27.6964 
8 *169:71 *759:A 32.4429 
*END

*D_NET *170 0.00932052
*CONN
*I *851:A I *D sky130_fd_sc_hd__buf_1
*I *842:X O *D sky130_fd_sc_hd__buf_1
*CAP
1 *851:A 0.00142188
2 *842:X 0.00106613
3 *170:16 0.00248801
4 *170:16 *842:A 7.86973e-05
5 *696:A *170:16 0.000405727
6 *696:C *170:16 0.000756229
7 *749:B *170:16 0.000471268
8 *752:A_N *851:A 5.52238e-05
9 *752:A_N *170:16 0.000446852
10 *753:A *851:A 0.000277696
11 *75:25 *170:16 0
12 *77:86 *170:16 0
13 *106:16 *170:16 0
14 *111:18 *170:16 0.000486802
15 *165:69 *170:16 0
16 *165:77 *851:A 0.0010635
17 *165:77 *170:16 0.000302496
*RES
1 *842:X *170:16 47.55 
2 *170:16 *851:A 40.2286 
*END

*D_NET *171 0.00288117
*CONN
*I *852:A I *D sky130_fd_sc_hd__buf_1
*I *726:Y O *D sky130_fd_sc_hd__nor2_1
*CAP
1 *852:A 0.00116003
2 *726:Y 0.00116003
3 *772:A2 *852:A 0.000153016
4 *39:10 *852:A 0
5 *121:8 *852:A 0.000349777
6 *169:71 *852:A 5.83233e-05
*RES
1 *726:Y *852:A 43.2964 
*END

*D_NET *172 0.0132233
*CONN
*I *853:A I *D sky130_fd_sc_hd__buf_1
*I *727:X O *D sky130_fd_sc_hd__o21a_1
*CAP
1 *853:A 0
2 *727:X 0.00147019
3 *172:26 0.00112753
4 *172:16 0.00259772
5 *172:16 *842:A 0.000228725
6 *691:B *172:26 0.000135028
7 *691:D *172:26 0.000465855
8 *692:A *172:16 3.25078e-05
9 *693:B *172:16 0.00030319
10 *695:B *172:16 7.70035e-05
11 *715:C *172:16 4.42631e-05
12 *725:A1 *172:16 0.000262691
13 *725:A2 *172:16 2.97464e-05
14 *785:A *172:26 9.41642e-05
15 *786:A *172:26 5.33005e-05
16 *816:RESET_B *172:26 9.94194e-05
17 *836:CLK *172:16 1.19524e-05
18 *26:18 *172:16 0.000455813
19 *53:12 *172:26 0.000968159
20 *75:56 *172:16 0
21 *103:30 *172:16 4.2855e-05
22 *135:14 *172:26 0.00192866
23 *147:14 *172:26 0.000613428
24 *159:39 *172:26 0.00189371
25 *168:82 *172:16 5.58941e-05
26 *169:54 *172:26 3.51247e-05
27 *169:71 *172:26 0.00019635
*RES
1 *727:X *172:16 48.3893 
2 *172:16 *172:26 42.4643 
3 *172:26 *853:A 9.3 
*END

*D_NET *173 0.0130347
*CONN
*I *854:A I *D sky130_fd_sc_hd__buf_1
*I *842:A I *D sky130_fd_sc_hd__buf_1
*I *725:X O *D sky130_fd_sc_hd__a2111o_1
*CAP
1 *854:A 0.00124146
2 *842:A 0.000851992
3 *725:X 4.71578e-05
4 *173:27 0.0020237
5 *173:6 0.00168139
6 *693:B *842:A 0.000718399
7 *695:B *842:A 7.58841e-05
8 *709:B1 *842:A 0
9 *715:B *842:A 2.28776e-05
10 *790:A *173:27 5.33005e-05
11 *800:A *854:A 0.000155275
12 *814:RESET_B *173:27 0.000108137
13 *817:D *842:A 0
14 *820:RESET_B *173:27 0.000244923
15 *31:20 *842:A 0.000272321
16 *34:14 *173:27 0.000962643
17 *57:8 *854:A 0.00143168
18 *75:56 *842:A 8.84398e-05
19 *75:56 *173:27 0.000475449
20 *77:86 *842:A 0
21 *81:26 *173:6 0.000145358
22 *81:26 *173:27 0.000604499
23 *83:16 *842:A 3.4323e-06
24 *86:20 *842:A 0
25 *89:42 *173:27 0.000100823
26 *97:36 *173:6 9.93586e-05
27 *97:36 *173:27 6.3211e-05
28 *106:16 *842:A 0
29 *129:102 *854:A 0.000136951
30 *133:10 *173:27 0.000144348
31 *136:8 *854:A 5.49489e-05
32 *142:130 *854:A 0.000216755
33 *142:168 *854:A 0.000540628
34 *148:62 *173:27 5.34036e-05
35 *163:20 *854:A 0.000108574
36 *170:16 *842:A 7.86973e-05
37 *172:16 *842:A 0.000228725
*RES
1 *725:X *173:6 11.0679 
2 *173:6 *842:A 38.0143 
3 *173:6 *173:27 31.4643 
4 *173:27 *854:A 36.4429 
*END

*D_NET *174 0.00839721
*CONN
*I *855:A I *D sky130_fd_sc_hd__buf_1
*I *728:Y O *D sky130_fd_sc_hd__nand2_1
*CAP
1 *855:A 0.00165612
2 *728:Y 0.000255067
3 *174:10 0.00191119
4 *710:B1 *174:10 7.90803e-05
5 *737:A *174:10 0.000114258
6 *78:22 *855:A 7.27549e-05
7 *85:10 *174:10 0.000140967
8 *92:14 *855:A 0.00104645
9 *92:38 *855:A 0.00123979
10 *95:37 *174:10 2.11419e-05
11 *145:40 *855:A 0.000841654
12 *154:46 *855:A 0.000462827
13 *166:22 *174:10 0.000555909
*RES
1 *728:Y *174:10 25.7107 
2 *174:10 *855:A 45.9786 
*END

*D_NET *175 0.0123652
*CONN
*I *856:A I *D sky130_fd_sc_hd__buf_1
*I *730:X O *D sky130_fd_sc_hd__clkbuf_1
*CAP
1 *856:A 0.000202221
2 *730:X 0.000156646
3 *175:12 0.00388769
4 *175:10 0.00384211
5 *746:A *175:12 7.1959e-05
6 *760:A1 *175:12 1.17819e-05
7 *778:B *175:12 9.94988e-05
8 *787:A *175:12 0.000346932
9 *806:A *175:12 0.000364295
10 *822:D *175:12 0.000964704
11 *835:D *175:12 3.06035e-05
12 *835:RESET_B *856:A 8.72474e-05
13 *28:12 *175:10 0.000264407
14 *64:14 *856:A 0.000153047
15 *89:18 *175:12 0.000972549
16 *95:8 *856:A 0
17 *106:50 *175:10 0.000451419
18 *107:18 *175:12 1.10868e-05
19 *142:58 *175:10 9.97744e-05
20 *169:16 *175:12 0.00034725
*RES
1 *730:X *175:10 24.1929 
2 *175:10 *175:12 48.1786 
3 *175:12 *856:A 22.675 
*END

*D_NET *176 0.00883772
*CONN
*I *857:A I *D sky130_fd_sc_hd__buf_1
*I *731:Y O *D sky130_fd_sc_hd__a21boi_1
*CAP
1 *857:A 0
2 *731:Y 8.01874e-05
3 *176:14 0.00202016
4 *176:10 0.00210035
5 AN[2] *176:14 1.40415e-05
6 AN[3] *176:14 1.40415e-05
7 *722:A *176:14 3.74428e-05
8 *722:B *176:14 0.00284637
9 *39:8 *176:14 0.00171503
10 *106:58 *176:10 1.00887e-05
*RES
1 *731:Y *176:10 19.6393 
2 *176:10 *176:14 47.2679 
3 *176:14 *857:A 9.3 
*END
